#=======================================================
# FHI-aims file: ../Intermediate_data/Reference_data/AIMS_PBE0_MBD/benzene_I_npt_fep_0.geometry
# Created using the Atomic Simulation Environment (ASE)
# Thu Aug 20 17:52:46 2020
#=======================================================
lattice_vector 14.2371170012494588 0.0000000000000000 0.0000000000000000 
lattice_vector 0.0045244654788995 9.4375481459153594 0.0000000000000000 
lattice_vector -0.0031644799489847 -0.0067628852421446 13.5985958572957113 
atom 6.6914992312552668 1.2421165894738861 0.0386775651289786 C
atom 0.3309739103833585 8.2090737459205414 6.7715108313031749 C
atom 3.8464994628057689 8.0958827323607032 3.3505915874559293 C
atom 3.1222516045149762 1.3704261970374851 3.2192709613455546 C
atom 0.2302556045823119 6.0188091123339706 3.4529609262738381 C
atom 6.7164763974077886 3.4542150763539539 3.3876181195680468 C
atom 3.3037699844649318 3.5266806088312057 6.9485206210917010 C
atom 3.8125686176002671 5.9849417683983486 -0.0268187029790209 C
atom 6.4257464168104308 2.2936076585426286 0.1151860117885453 H
atom 0.5365010621201762 7.1306634301954688 6.7026119534841433 H
atom 4.0141428152870988 7.0223937650512767 3.3328588578421376 H
atom 2.7435670733623101 2.4012846451679475 3.1397303290492515 H
atom 0.5276214678820552 7.0458363171817151 3.4892624855548329 H
atom 6.3968004212904548 2.4082644930821799 3.4001490368242271 H
atom 3.0905909297076595 2.4371575708772575 6.9431759308768601 H
atom 4.0775276661716120 7.0588011597820710 0.0517747020415825 H
atom 0.5333418739436815 0.9291294137838371 0.8473662370417591 C
atom 6.5124256501956639 8.5790744784172137 5.7804147616621293 C
atom 2.9219050980458112 8.6146351895496185 4.2436099457684096 C
atom 4.1773093282419396 0.8703536967380626 2.4290241165602180 C
atom 6.5635441724484949 5.6582806525942919 2.4387345190792598 C
atom 0.5366492317498945 3.8238718436387811 4.3175677580878249 C
atom 4.3047034591647781 4.0035592703072167 6.0856441988819245 C
atom 2.7481603318835788 5.5430787654882758 0.7603007042647602 C
atom 0.9111903050429372 1.6617594396986959 1.5216438877100387 H
atom 6.0106597826994603 7.9586670716965342 5.0821283392069878 H
atom 2.4373851170943253 8.0192578667063579 4.9602059010387478 H
atom 4.6894576533634060 1.5268509918401405 1.7039401582160154 H
atom 6.2320675436785917 6.4091302511920167 1.7207256605541081 H
atom 1.0271647909324837 3.1778840087017257 5.0609189150673046 H
atom 4.8806970193773838 3.2788827784447392 5.4815883691551619 H
atom 2.1939212483771202 6.1838594962952298 1.4171684234411337 H
atom 0.9507357208602661 9.0316268617569673 0.9174451801260474 C
atom 6.2574151339054085 0.5222397352597853 5.7978776108789347 C
atom 2.5508460110511497 0.5121430333489778 4.1310909873147947 C
atom 4.5307732717075471 8.9747403074901015 2.4951977315469298 C
atom 6.1582473174439150 4.3112493817348359 2.4284314380413452 C
atom 0.8832603298410286 5.1414014828668160 4.3113499254121441 C
atom 4.6580086494556880 5.3225176881075358 6.0798761668678889 C
atom 2.3598712336616696 4.2121397747707308 0.6871737002262657 C
atom 1.6718667251544832 8.7377747353905448 1.6709777073761731 H
atom 5.5520218609962759 1.0091780562391743 5.1422375829202274 H
atom 1.7094912275579635 0.8435349937590417 4.7579649400181836 H
atom 5.2884386732723163 8.5621937241743034 1.8477282003126916 H
atom 5.4788366474603931 3.8676506774480628 1.6821856815098679 H
atom 1.6437092037355072 5.5063538644080854 4.9714773764423210 H
atom 5.4635963426893630 5.6437811959718536 5.4236963781152072 H
atom 1.6109637155677525 3.8503518731784458 1.3751835005059423 H
atom 6.9286764742544218 1.3109625495680184 6.7217681698977296 C
atom 0.3859977607337648 8.1077363027381715 13.6435124221903283 C
atom 4.0441365817600845 8.1499646472079004 10.2185714312507301 C
atom 3.1848373977535083 1.3625520395724531 9.9866859607415144 C
atom 0.6071356413159084 5.9613933808181105 10.0091759938237637 C
atom 6.7349446833976829 3.3187086582040353 10.1786185489516736 C
atom 3.0572898054284612 3.3247571541600376 13.4903685263314372 C
atom 3.9519062790329031 6.2345546767488633 6.8787750596742789 C
atom 6.7726221035260634 2.3965590923344302 6.7255253283655883 H
atom 0.7850291571102543 7.1087554920871137 13.6733580190335964 H
atom 4.4185189018784294 7.1208736510890782 10.3001176453207197 H
atom 2.9003199580593417 2.4113284293538557 9.9019646831775603 H
atom 0.9920591722342152 6.9858276171457847 9.8367171283765877 H
atom 6.6043966560708389 2.2479343701819481 10.1254891531526674 H
atom 2.7510284725731267 2.2971425625659094 13.4890455832089522 H
atom 4.1721763089266961 7.2846010919278523 6.8519986908751767 H
atom 0.6060402444104906 0.9447718932641027 7.6756101612095913 C
atom 6.5312643602598541 8.4962053212247390 12.6977139250631783 C
atom 3.0361862167385767 8.6186569366419725 11.0105910198201951 C
atom 4.2047630439197530 0.9079570320515832 9.1866757957122367 C
atom 6.4021451115052948 5.5836666604861236 9.4545453191530502 C
atom 0.6746163241076357 3.8120606074412331 11.0314406034305623 C
atom 4.0912545240105187 3.7855541190391184 12.6774464364267043 C
atom 2.9799135080805441 5.7507279179935606 7.7403814564864692 C
atom 1.0723353609066197 1.6058677386599391 8.3903698714259196 H
atom 6.0462734115567640 7.7926112509621861 12.0248121352422839 H
atom 2.4941764194563714 7.9626359010639902 11.7048715705004511 H
atom 4.6816469971682544 1.5268404082951605 8.4488968751646674 H
atom 5.9231867834407366 6.3011251746723218 8.8176804999886542 H
atom 1.1044352528306018 3.1734124609477257 11.7458298895725957 H
atom 4.6144838207259227 3.1289509884872420 11.9982474373427799 H
atom 2.4761420588106526 6.3797609138728442 8.4197392087450922 H
atom 1.0012403975042627 9.0723205922046137 7.6152839548242648 C
atom 6.0593440896069177 0.3624070389736079 12.7617443721914636 C
atom 2.5841365517853681 0.4790641635143568 10.8885627462021564 C
atom 4.6209821173435710 9.0478196855761865 9.2974855116516029 C
atom 6.0612491277032969 4.2652056692998581 9.4040088918741152 C
atom 1.1711168779763481 5.0915741531015319 10.9169795644731380 C
atom 4.4650335820650096 5.1026710000129381 12.7000952226836521 C
atom 2.6436795758421838 4.3979286151200681 7.7472078429984927 C
atom 1.6821115966950086 8.7078762208223779 8.3441197798638349 H
atom 5.3208243209107549 0.7386943971883311 12.0952985448082977 H
atom 1.7404322213066485 0.8348829457379883 11.4706577200956641 H
atom 5.3649047857519632 8.6976101821918927 8.5817732823870845 H
atom 5.2493113074816931 4.0337276652723704 8.7261857536375746 H
atom 2.0558483205695803 5.4078739783702847 11.4882264047622673 H
atom 5.2857134104399970 5.4769316093640139 12.0749781384469230 H
atom 1.8715147176549762 4.1289531112288582 8.4461451534698977 H
atom 13.8458698022056712 1.3157039777190056 -0.1396498760095425 C
atom 7.4064176946462936 8.0244967214713991 6.7071099601005937 C
atom 11.1740009543095731 8.2047344924787904 3.5206585717376528 C
atom 10.1796239857247635 1.3226414914533180 3.2882333404344655 C
atom 7.5388178423446170 6.0996144782553694 3.3577301885448598 C
atom 13.7422568968526289 3.3899835418710502 3.4689156203310101 C
atom 10.2748229728188001 3.4287986930847674 6.6437145256711005 C
atom 11.0830883029323868 5.9866880533200284 0.1104128330026185 C
atom 13.4883047350603604 2.3501608311426279 -0.2243817371184774 H
atom 7.5187091068828407 6.9231201131399844 6.6872128955384156 H
atom 11.5072767857260558 7.1823111296972932 3.4651902124980913 H
atom 9.8331716408083274 2.3496581127560838 3.2980919125832253 H
atom 7.8615101287812177 7.1348439304625231 3.3816595837443733 H
atom 13.5132289834879824 2.3236173003330838 3.5372006525412081 H
atom 9.9497493887617257 2.4175198031670866 6.5855050282817498 H
atom 11.3304786668371271 7.0266271830432290 0.1185462873196578 H
atom 7.7360951207696163 0.8029735576236442 0.8503931309060053 C
atom 13.5150811038594618 8.6770781049309225 5.9774803691875311 C
atom 10.1376602298795309 8.6190802784411691 4.3499163633188340 C
atom 11.2537479657329840 0.9381677611966563 2.5062522442784170 C
atom 13.4518444226046672 5.6057333517691772 2.5972707311054015 C
atom 7.6658732998280996 3.9180071844623408 4.2884206752132297 C
atom 11.2272361855583789 3.9828684398715479 5.8031164656439760 C
atom 10.0942147777371147 5.5036550604382155 1.0236880964065924 C
atom 8.2387076718642103 1.4799129698543640 1.5108751306930086 H
atom 12.9708223032690313 8.0053934227827135 5.3420443285954189 H
atom 9.7160117978810341 7.9927990042566535 5.1421582063328772 H
atom 11.8020814311406674 1.6014808592657781 1.8711548771256603 H
atom 12.8918161399942122 6.2773121984675866 1.9287611124511577 H
atom 8.0876804850012949 3.1864566801354304 4.9417693656837924 H
atom 11.6542822254966154 3.3677210550058687 5.0076731002735171 H
atom 9.6632528261563220 6.1799965023775725 1.7694523016414847 H
atom 8.1564735273705278 8.9015550939542187 0.8232622133500779 C
atom 13.1244424586520196 0.5710245858445512 6.0551635893398652 C
atom 9.6188019372408178 0.4770903323756088 4.2274859149915596 C
atom 11.7209056411449737 9.0838037385077861 2.6243698980263894 C
atom 13.0821611964573901 4.2292904094106296 2.5973024817403414 C
atom 8.0660900532423359 5.2297582081313605 4.2740111787231205 C
atom 11.6525359405749356 5.2864913009960173 5.9310715244507488 C
atom 9.7093441645437082 4.1939572444952935 0.9188369162909019 C
atom 8.9538378061548354 8.6039458091199368 1.4658315632586312 H
atom 12.3095624129260077 0.8528379297963580 5.4366612207155631 H
atom 8.7771455227157062 0.7813037492773359 4.8189632015097326 H
atom 12.5755268982704393 8.7883640803943806 1.9793716245449535 H
atom 12.3610513592531337 3.8548657551123653 1.8907979366083214 H
atom 8.8360958682536488 5.5832433186869288 4.9066267045780947 H
atom 12.4942981905498467 5.6122422319318055 5.3540037344226850 H
atom 8.9530969580062436 3.7973230210567475 1.5977501596603698 H
atom 13.7842206526978597 1.4145066618786934 6.9026409536039131 C
atom 7.5271230251418473 8.0342865005777906 13.5134935721124787 C
atom 11.1978139305143056 7.9607308629676110 10.3198559567081993 C
atom 10.3955812210392544 1.2300090140169013 10.3244068810495495 C
atom 7.4486989568409223 6.0245771443480063 10.2585243135497830 C
atom 13.8615334487758979 3.4130239192922533 10.2379393185639138 C
atom 10.2991122085476299 3.3355841206744574 13.5695334427809549 C
atom 11.0576348772557704 6.1175006692713696 6.8537978935217572 C
atom 13.4575066191689050 2.4601820729809907 7.0192187015573122 H
atom 7.7886424215947310 6.9630729954390391 13.4480343464119088 H
atom 11.5506164024186724 6.9460864057463283 10.3752608146778815 H
atom 10.1582452248654018 2.2880883398356202 10.4207700580913727 H
atom 7.7208548159985861 7.0765815153482725 10.3189563553849091 H
atom 13.4980415964418512 2.4197899735652713 10.3148816905676544 H
atom 9.9990687083679770 2.2877179157613243 13.5488426123452861 H
atom 11.3976841774593769 7.1464858299403922 6.8925336681481255 H
atom 7.8241502150022351 0.7573055610354535 7.6265554302278389 C
atom 13.6363685293289087 8.4866272130179468 12.7947650325286961 C
atom 10.1712629851906566 8.4085206510664161 11.1477537627594643 C
atom 11.4179516660958509 0.8257334711028803 9.4669809845044117 C
atom 13.7482895174911608 5.5921334964700291 9.2624539777681925 C
atom 7.7146634421853557 3.8038954024892537 11.0646729346673904 C
atom 11.3053427475099078 3.7930472688848749 12.7310520917498060 C
atom 10.0752702322231276 5.5790628184198745 7.6947663776231776 C
atom 8.3396746909722843 1.4168244582292877 8.3437493557895390 H
atom 13.2197472811958558 7.7498008115185639 12.1312825977398955 H
atom 9.7012477526340977 7.7575267993538777 11.8333028888313194 H
atom 11.9685076759493114 1.4252912942131932 8.7648156928141425 H
atom 13.3532057833921662 6.2856202812767945 8.5451012990317938 H
atom 8.1914521435290375 3.1568121706467811 11.7728179292712927 H
atom 11.7419668956549383 3.1455248199257371 11.9972420005696918 H
atom 9.7454869706500045 6.1685133560744010 8.5013383405399825 H
atom 8.0809599339390701 8.8160929682416711 7.6389910955792004 C
atom 13.2377922253865545 0.3687995001414567 12.6778168605010002 C
atom 9.7948062902562540 0.3131247617747877 11.1729425998115843 C
atom 11.8154696155402181 8.8998617267574378 9.4781995421830860 C
atom 13.2649919359848507 4.2846688085178615 9.3468577489827513 C
atom 8.1036616379209168 5.1237904640202929 11.0919784807154862 C
atom 11.6827519614924995 5.1271189889164654 12.8192659391571233 C
atom 9.7089208227445134 4.2701111423980338 7.5925822508424172 C
atom 8.7685199335571014 8.4282589624538957 8.3991012960343223 H
atom 12.4067193558413233 0.6711078789468049 11.9986707791419747 H
atom 9.0131585757670720 0.6238841012465717 11.8393355094698531 H
atom 12.6222532493566195 8.6219907533106355 8.8024401952176241 H
atom 12.4530752828532076 3.9670301648091542 8.7252332345893837 H
atom 8.9638392561608224 5.4482502024685342 11.6715863215387223 H
atom 12.4747715500619645 5.4678826784062151 12.1976414247637557 H
atom 9.0469200842528963 3.9011105549019596 8.3345416716570426 H
