#=======================================================
# FHI-aims file: ../Intermediate_data/Reference_data/AIMS_PBE0_MBD/benzene_II_npt_fep_0.geometry
# Created using the Atomic Simulation Environment (ASE)
# Thu Aug 20 17:52:48 2020
#=======================================================
lattice_vector 11.1969460798259561 0.0000000000000000 0.0000000000000000 
lattice_vector 0.0039317869600261 11.1923951554846060 0.0000000000000000 
lattice_vector -0.0027464299222794 0.0098162379688405 14.0290286316275079 
atom 1.8734091722063753 0.4443025100279345 0.8431328190498063 C
atom 3.8585594123103442 4.9411872707099000 7.9133165814577406 C
atom 2.1839303819161122 4.5314188679513201 11.5437370981817473 C
atom 3.3570581334386373 0.9420095880243535 4.2283696409973794 C
atom 1.0497871183269813 3.4028637161115669 9.7397189386359688 C
atom 4.7673102102354186 2.0643310318709558 2.6424095504445981 C
atom 0.5774593811923194 1.8680274395841054 13.3741082847274342 C
atom 4.9754620811272474 3.7987782584914811 6.0582328173840301 C
atom 2.7469538077558724 0.3740806890864178 1.4940684612649560 H
atom 3.0227292392966567 5.0529706727874126 8.5403916215157452 H
atom 2.1470626029786932 5.2918254076658782 12.3001430578939122 H
atom 3.1464508801114763 0.0949238149245613 4.8294038686323866 H
atom 0.2365528138453416 3.3158775599219168 9.0232129434979615 H
atom 5.6428815946485633 2.0627011659440542 1.9847956913471427 H
atom 0.4977652874938083 2.7750584114499492 12.8036022925868966 H
atom 4.9535806018813409 2.9807866505413840 5.3570729624668507 H
atom 0.8177746452780090 5.2608738303722138 0.7825684829024318 C
atom 4.5467755917171280 0.3745992827904320 7.7838798263537843 C
atom 3.1832922001864459 3.5319088800512675 11.5962314812819631 C
atom 2.4758827619586459 2.0032428102470772 4.2147962445606808 C
atom 1.9994009834193800 2.4160433986423930 9.7953354675052502 C
atom 3.8699525984811873 3.1386508074613033 2.5935400314999937 C
atom 5.1424704209097847 0.7781075186934115 13.2206998002440450 C
atom 0.3478493728537803 4.6667083234291500 6.1105155295846476 C
atom 0.8613365164152033 4.3799471721992491 1.4230317073599885 H
atom 4.3256218358175147 1.2679404392247982 8.3742828830564999 H
atom 3.9650034159455072 3.5694963400473183 12.3131608182191670 H
atom 1.5960144582836693 1.9967762642643692 4.7969917621314977 H
atom 1.9985490080484996 1.5714447586128730 9.1082517274113126 H
atom 4.0464014603857787 4.0415436132400133 2.0380150472784795 H
atom 4.2039957369087118 0.8508746822025899 12.6815211012439590 H
atom 1.1361488453628181 4.5575760993690979 5.3545858293965791 H
atom 5.2410720177148544 5.5416499869159930 0.1063117093229143 C
atom 0.0671261340349013 0.1975206999595370 6.9603212737442695 C
atom 3.0751495375820119 2.4878051253784825 10.6941430249217238 C
atom 2.7363173450510909 3.1096836448513669 3.3776166695620584 C
atom 4.4399982064150993 4.8496237313164503 0.0527695552696914 H
atom 0.8061909552975283 0.9780888928607711 7.0064126121316548 H
atom 3.7828500232967586 1.6681042749141350 10.6203757164119477 H
atom 2.0469211003790497 3.9684113174290290 3.3120674837291593 H
atom 1.7004687554626141 1.6041055784207889 0.1242561098363041 C
atom 3.9103711567593562 3.8996976516471453 6.9980516115975480 C
atom 1.1022285837022965 4.4266153137880391 10.6731876058615587 C
atom 4.4974827309733278 0.9421471741090919 3.4411126476688603 C
atom 2.4988014286125804 2.3557330675745356 0.1962506745619512 H
atom 3.1380210865350002 3.1414131127010529 7.0416028991897619 H
atom 0.3551520188898988 5.1916944886112146 10.6304300841428354 H
atom 5.2159413901601246 0.1273253378804699 3.4773136632725468 H
atom 1.8101936580415403 6.2402697910380001 0.8058946160380916 C
atom 3.6858359582386711 10.4704068840470210 7.8030360427673697 C
atom 2.0807143594998130 10.3297515712643886 11.3099465895761551 C
atom 3.3642655275699371 6.7308171008555293 4.2451974775153918 C
atom 0.8860332186257578 8.9985003659699370 9.6844199161160862 C
atom 4.8669701615384771 7.9124169801344495 2.8131009638801348 C
atom 0.6707533301899788 7.4474289314433371 13.0703605438048225 C
atom 5.0810594011640191 9.3016130941937565 6.2421219114094795 C
atom 2.6316672522900184 6.1801552555522710 1.4666094538146524 H
atom 2.8351464880732284 10.5217370771994467 8.4860980357689524 H
atom 2.1484331720535876 11.1878124805083186 11.9563895169473469 H
atom 3.1972995219673193 5.8545524942462022 4.8502217016078140 H
atom 0.0299673076105358 8.8740907947314245 9.0600436800279489 H
atom 5.8504778294289475 7.8747924777309697 2.3098851507216871 H
atom 0.6611381795757562 8.2939008589342951 12.3863460317550516 H
atom 5.3006626677240796 8.4104256891627962 5.6282233848514265 H
atom 0.9234090077222109 10.6476283447351427 0.7177495616731446 C
atom 4.9016153960301203 5.8579921463646638 7.9404104566062381 C
atom 3.1373807820637176 9.4062843540447894 11.2813181004055760 C
atom 2.4337972953461451 7.7558334321570968 4.2067157079685407 C
atom 1.8666357034192507 8.0228033542746182 9.7327867166741466 C
atom 3.9341894247365805 8.9146786897292714 2.7575161856457946 C
atom 5.1770733212215090 6.7214506635483335 13.3549520683138478 C
atom 0.2972653196224345 10.2407968757084813 6.1756043312109208 C
atom 1.0241537723857073 9.6863249542124663 1.2229762483777697 H
atom 4.8116764307910840 6.6663103942031485 8.6499842297824241 H
atom 4.0544978722953884 9.5880567390742613 11.8629897324998872 H
atom 1.4907187692788235 7.6776739524806681 4.7442169150893161 H
atom 1.7534235227694535 7.1231491132597533 9.1629157372324030 H
atom 4.1627040361697016 9.7948062902562540 2.1270014934693267 H
atom 4.2897700771981651 6.9304227591761025 12.7589926504966957 H
atom 1.2476411999533845 10.1253833177028678 5.5954673131386921 H
atom 5.4006771677839644 10.8926374110194111 -0.0133405584471412 C
atom 0.2463161340892827 5.7371280626944117 6.9677826729550860 C
atom 2.9973022724824903 8.2337863234485660 10.5072376205770084 C
atom 2.7173304653571830 8.8956283087654846 3.4305343944614681 C
atom 4.6836314118519820 10.0452129644802621 0.0419690476177219 H
atom 1.0083313726407837 6.4700914702761363 6.9605329446438668 H
atom 3.7428706821352549 7.4503394063128043 10.5835449798819585 H
atom 1.9557068179699373 9.6124518102528889 3.2727125717214682 H
atom 1.7232974619842194 7.3256123287248958 -0.0510444374379707 C
atom 3.9760208862695641 9.3437356032136858 7.1025112005489826 C
atom 1.0075640656297422 10.1738559537107278 10.4445301165712099 C
atom 4.5698741786357200 6.8232114485298982 3.6100630679552057 C
atom 2.4605895394627164 8.1095355053847520 -0.0766301574268353 H
atom 3.3393994886397045 8.4656717939577799 7.1521480265046291 H
atom 0.2140733643080724 10.9104706843105106 10.4549019906514946 H
atom 5.2750557806452560 6.0081197319042889 3.6836980821527341 H
atom 7.4959544851760951 0.5724745315067949 0.7036575715324319 C
atom 9.3909911315488603 4.9252590355151771 7.8850585163614557 C
atom 7.7421806591330489 4.6850972328316960 11.4294877301239239 C
atom 8.9089635754401346 0.9708920822744512 4.4076866435915187 C
atom 6.4910998070612029 3.4464785049736602 9.7905728722643026 C
atom 10.1837515682669171 2.1029345121850751 2.6833678695167413 C
atom 6.1085046560384697 1.7815651688709597 13.1836044750895578 C
atom 10.6007961581991648 3.6544874980082600 6.1534318044780685 C
atom 8.3631172431027228 0.5102379952525992 1.3214508426430815 H
atom 8.4848809280962652 4.8949477626927944 8.4856217762448569 H
atom 7.8361096208295011 5.5919747432953306 12.0322735344531004 H
atom 8.7876761499706877 0.2064214612876177 5.1506515011792331 H
atom 5.5957848194880881 3.3864750967102197 9.1936080176740607 H
atom 11.0515493388923378 2.0581502416027044 2.0346865223823065 H
atom 6.0025633707898507 2.6203322756165646 12.4949332032486389 H
atom 10.6483162751588356 2.8143551139602505 5.4728569445467592 H
atom 6.3938899464209875 5.2901055816066478 0.8390528624600617 C
atom 10.0607178578757903 0.3016310319266358 7.6652382871293074 C
atom 8.7519566856635862 3.7223068542393438 11.3677327451663110 C
atom 7.9611542047668067 1.9798002581166387 4.3320301723028329 C
atom 7.4818783703528524 2.4970710190083691 9.7589280727744558 C
atom 9.2475311793465593 3.1063657035001739 2.5916984946734938 C
atom 10.8324699578087831 0.8820696810307920 13.2730883478944612 C
atom 5.9814491985549871 4.7440158277346987 6.0828924771871549 C
atom 6.4745365591676869 4.3588382917368742 1.4281541431302514 H
atom 9.9612854527897987 1.1888390240451603 8.3005155745467221 H
atom 9.6334072293130557 3.8263272260741137 12.0476196746739284 H
atom 7.0991773838803205 1.8848976102820370 5.0122769423397671 H
atom 7.3638718438271678 1.6352370759791117 9.1200523800638820 H
atom 9.3549541608923619 3.8561093216475015 1.8136121430700423 H
atom 9.9260951657316916 1.0389389847226025 12.6974493364386820 H
atom 6.7945300416344185 4.6838907087039887 5.3929511799486507 H
atom 10.9132753237301809 5.4385662588119414 -0.0549920997154667 C
atom 5.7126271560659845 0.3366625658100451 7.0057775994328626 C
atom 8.5705018069835113 2.5977787412644360 10.5957160566088220 C
atom 8.1200132149148345 3.0558186926762572 3.4705560698028917 C
atom 10.0621995541729738 4.7439734935547788 -0.0445514325928131 H
atom 6.3976471048888452 1.1793244171082466 6.9905902123867314 H
atom 9.3749041431794389 1.8524749202361688 10.5031100380348548 H
atom 7.3714919962126828 3.8324021808925659 3.4244488560980360 H
atom 7.2717950025021949 1.6976746995879253 -0.0976384942119010 C
atom 9.5408012107390867 3.7860250867907235 7.0535623050170289 C
atom 6.6224416002615376 4.5253756637678064 10.6585293960644218 C
atom 10.0473825912011367 1.0430665672647563 3.6023159130299320 C
atom 8.0504264066721110 2.4558216524492793 -0.1610762628213135 H
atom 8.7904807893903563 2.9973763572973495 7.1120893087557766 H
atom 5.7902574584934197 5.2172167073302003 10.7673811561825072 H
atom 10.8410426292424855 0.3022713363979186 3.6170799582768671 H
atom 7.4311831898992171 6.2078841433995606 0.8593309346415156 C
atom 9.1260850007024139 10.4512506676334329 7.6450766339426321 C
atom 7.8406076274459506 10.3163104691399390 11.2311520972009351 C
atom 9.0732731112528029 6.5850816864825550 4.3531073021302680 C
atom 6.3818247051439219 9.0628483194476193 9.8301024127641607 C
atom 10.4466468255671838 7.8034064668416656 2.7497161129956216 C
atom 6.2208489859999165 7.5951752193624884 13.2729295947197627 C
atom 10.5367657110708794 9.2346721721960030 6.1191940364681505 C
atom 8.3026852012675967 6.1162306438737835 1.4807702369977345 H
atom 8.2311933549284948 10.5051738293059334 8.2271186901112401 H
atom 8.0511672548207027 11.1868599614601294 11.8857443542066346 H
atom 8.9945844543273807 5.7437427783068387 5.0490970953247762 H
atom 5.4324278027236108 9.0088722400502217 9.3018247650933539 H
atom 11.3409563763672114 7.8753745727048639 2.0842915977030132 H
atom 6.1727467740663533 8.5077943029777092 12.6881358168563843 H
atom 10.7419277305058909 8.3873006433817530 5.4805300146571740 H
atom 6.5531722983682101 10.7891303411161648 0.7610468441858418 C
atom 10.4160603805753258 5.8417464048205456 7.8965945803895261 C
atom 8.7544438187338596 9.2675340793585370 11.2298820718033490 C
atom 8.1361531210091549 7.6027424540231046 4.3125723248573209 C
atom 7.2621110588456030 7.9784053830840138 9.8705315545873109 C
atom 9.4723785924441515 8.7894224348923693 2.7155471380280725 C
atom 10.8467577435316223 6.5238558787739374 13.1083025525576993 C
atom 5.9358870374165953 10.3893369295011233 6.2054499280541879 C
atom 6.7168997392069834 9.8876239797298187 1.3362889727048759 H
atom 10.4601937631414330 6.7248903156667952 8.5346765072266102 H
atom 9.7106141899412943 9.3888744225528828 11.7553021623295901 H
atom 7.2303075061810578 7.4660559706079290 4.9116115542636187 H
atom 7.0357290317259285 7.0906576301715152 9.3349512608803842 H
atom 9.6104409367067127 9.7155884560818393 2.1481103739317011 H
atom 9.9737211181411602 6.6945684592994334 12.4721256638169944 H
atom 6.8929570099473203 10.2994826326219258 5.7017790224616069 H
atom 11.0026004433603841 10.8586113139090905 -0.0833295413991006 C
atom 5.9533498866333998 5.7796739135135375 7.0309135187600820 C
atom 8.4764670098372594 8.1054079228425984 10.5164982224344055 C
atom 8.3758174970785806 8.7105221070673480 3.5376874956102831 C
atom 10.2452948823249308 10.0856950240283112 -0.1285001113732368 H
atom 6.8011976749717435 6.4509881715874497 7.0694376224868520 H
atom 9.2254115703386059 7.3257710818995934 10.4962836515228322 H
atom 7.6196232082660149 9.4982553599199626 3.4140187725203623 H
atom 7.3298986644417470 7.3711744898632876 0.1084125430014208 C
atom 9.4107294429363382 9.3123024746234364 6.9136478403829900 C
atom 6.6660458055786513 10.2235986151161740 10.5023162721613641 C
atom 10.2464061545478184 6.7208156508495405 3.5876894538677351 C
atom 8.1549389133484453 8.0807482630394727 0.1175831847264886 H
atom 8.6998327266376680 8.4973165934476267 6.8952324721179945 H
atom 5.9209642389949613 11.0181582544808112 10.4589237377438486 H
atom 11.0125489756414741 5.9632984189144898 3.6664310285180575 H
