#=======================================================
# FHI-aims file: ../Intermediate_data/Reference_data/AIMS_PBE0_MBD/glycine_gamma_npt_fep_0.geometry
# Created using the Atomic Simulation Environment (ASE)
# Thu Aug 20 17:53:02 2020
#=======================================================
lattice_vector 14.1699591165796175 0.0000000000000000 0.0000000000000000 
lattice_vector 0.0002910474869468 12.2762824557367694 0.0000000000000000 
lattice_vector 0.0001640449471882 0.0024977166152521 10.8481706467864374 
atom 5.0553360950904160 3.2218427627756658 -0.0178491486085709 O
atom 1.4248362017790583 2.9501049536447064 1.9812184531439427 O
atom 0.2625036661360122 6.0401349554684316 3.7657099722018397 O
atom 6.1654441280302343 1.6090428021539038 5.3572317156415483 O
atom 2.8050574696954245 4.7291776976729034 1.6354222880162597 O
atom 1.6694007591741706 0.2885338950140319 3.6389984799302031 O
atom 5.7634810896943183 2.6487755527499974 4.7812699060638826 C
atom 2.1582441182499386 3.6997321527972558 1.2720415629045025 C
atom 2.7900923370938711 0.1596739431114791 3.0845212666616972 C
atom 12.6532101184227752 2.7461547501098909 3.4248986567596811 C
atom 1.9376565820067486 3.6075283089325239 5.1958749888782689 C
atom 13.6129259771984703 6.0540523171169776 1.4842151808886861 C
atom 6.1142197703276056 1.2075560233420819 2.7983422104056892 N
atom 2.7700047687220550 4.6631840029508496 4.5663710252473795 N
atom 1.5328941960236531 0.1777241790746678 0.9630443836718688 N
atom 13.2315479338484252 3.6293409951360607 3.0822034703111028 H
atom 0.8627652949874873 3.9130223347768167 4.9306143092749970 H
atom 13.7442677703988050 5.0318988347324680 1.2992677323652488 H
atom 5.1693473333861943 3.1266596509990974 2.7775085021127914 H
atom 2.1755005883396361 2.5624984940739997 4.7462436639529635 H
atom 3.5180656032175817 0.6292023325989623 1.0617253570642882 H
atom 6.1327938917672986 1.1677618942177255 1.7686426604505237 H
atom 2.7262418102302433 4.6637925567871932 3.5211771654416673 H
atom 1.6271829982494215 0.3925119326688822 5.5422320818898854 H
atom 14.2133304839071748 1.4784683159646101 2.9240482659042368 H
atom 2.4056238986096989 5.5961552435623849 4.8285889356689351 H
atom 11.6447570350147220 5.8625959884309120 0.9345905229934561 H
atom 5.2354786141929868 0.7045095469033124 3.1428789336807665 H
atom 3.7838819189322970 4.5737001301459479 4.8297848762516615 H
atom 1.2570923056204193 1.1484892588093605 1.1662537390580923 H
atom 5.1767981490520318 3.6516140655462221 5.2581115251324642 O
atom 1.4797648002246455 2.7916428264334239 7.4376391523369456 O
atom 0.4575954425226663 5.9052476746998366 8.9982886950703396 O
atom 5.9600175199707257 1.2118211919689741 10.8309882615115995 O
atom 2.7738413037772620 4.6237550061282997 7.1628374069343108 O
atom 1.6301940167961979 0.1571656429512471 9.2371063875413757 O
atom 5.5572607157613181 2.2470718112660872 10.2633927442405284 C
atom 2.0883080530228786 3.6800308838172056 6.7368497214940621 C
atom 2.7405348877255742 -0.0716400159688210 8.6671295726498325 C
atom 12.4535515423773013 2.6341543853602905 8.8757841619282054 C
atom 2.1217838057942453 3.4482724158477502 10.6612811177591897 C
atom 13.6485925237806729 5.8738674638344870 6.9029055422284102 C
atom 6.0334144044062077 1.1534000236800257 8.1117051321056284 N
atom 2.6718212219436901 4.5957985720639414 9.8387809196476645 N
atom 1.5711537111259264 0.3073038120358526 6.5591520012818432 N
atom 13.1351318390816996 3.4569297556412937 8.5606591101522191 H
atom 1.0209575418017829 3.3310596551955576 10.2682611749312738 H
atom 13.7936929254548541 4.7862018380245077 6.7329338098515050 H
atom 4.7134082156528798 2.7576378964130628 8.3559204325164043 H
atom 2.7599186503562279 2.5967309703114281 10.4843771634204632 H
atom 3.6914664041679677 0.3997722445250812 6.8359117025057561 H
atom 6.0090193332275792 1.2179014385599163 7.0786453066193493 H
atom 2.4667385790960275 4.5638045155897586 8.8247714751251749 H
atom 1.5966071368025425 0.0957281643430323 10.6712296500402815 H
atom 13.9673159808498184 1.2875993740249290 8.5953202199613337 H
atom 2.3949345181800181 5.5285263911409386 10.1383481603032237 H
atom 11.6789418852997411 5.7607293679995486 6.6326018034422241 H
atom 5.3988779651373848 0.3854632917122808 8.4547178249036019 H
atom 3.6985256286695494 4.5415843629044961 9.9113311204847570 H
atom 1.3011357280541980 1.2734968003392362 6.9360849557403395 H
atom 12.1609165236835643 3.2989174290916559 0.3137386073836207 O
atom 8.5289084752125746 2.7272737058657821 1.9567916313303753 O
atom 7.3750374837809440 5.8866206355352446 3.6238957612439111 O
atom 13.1790006330233087 1.3379876316741470 5.2997101486758904 O
atom 9.6868541314614589 4.6338517080391073 1.8570311363500078 O
atom 8.6394536025274409 -0.0227122875268267 3.5675595513160001 O
atom 12.6811506771696614 2.4189909159192902 4.9470452628562640 C
atom 9.0884604982989341 3.6906038452521077 1.3438085814130820 C
atom 9.7673419910334616 0.0414028279612982 3.0544481236013628 C
atom 5.9953136424786315 2.6204010686589339 3.2756071712734665 C
atom 9.1369331343067941 3.8825099745998171 5.2143273995506929 C
atom 6.4381291644368934 5.8837101606657773 1.4915178269248046 C
atom 13.1662474613225537 1.6035816929442848 2.7101230712258828 N
atom 10.0138856713398123 4.7620343130629470 4.4950802662628950 N
atom 8.5802915860899009 0.0029051830969776 0.8989239764112540 N
atom 6.9763553443887911 3.0605548290547548 3.1436039065118884 H
atom 8.1664220596516177 4.2872882359003830 4.9426477999171228 H
atom 6.6717080021428883 4.7854398227859560 1.3441578383974182 H
atom 11.6074500389606374 2.8019035732914195 3.0437269925367421 H
atom 9.0708388959074302 2.9503642504967136 4.7362739645819145 H
atom 10.5088251523239915 0.7466267641507526 1.3036969459393295 H
atom 13.1028520268930588 1.7343731418056658 1.7005745909124130 H
atom 9.8021089362923739 4.7214834604725295 3.4919295388897633 H
atom 8.7662444713864272 0.1105927532672765 5.2036538944384816 H
atom 6.9999566496939272 0.8342585165841752 3.1866895181249877 H
atom 9.8556087561656778 5.7265445177145295 4.9095054288126230 H
atom 4.4144918630135841 5.4764024321150204 1.0898564196208145 H
atom 12.6792985567981837 0.7452509033033680 2.9519623657886758 H
atom 10.9764061695351760 4.4942018320295647 4.7398988287375241 H
atom 8.1582727300171083 0.9272561263223980 1.1504842570380682 H
atom 12.1734580244847255 3.2772317454278777 5.6782306348813689 O
atom 8.7657682118623335 2.9932223158927456 7.3672585782207305 O
atom 7.5029396248628171 5.9879051609927147 9.1303713364192660 O
atom 13.2750463037157402 1.4098022761351361 10.7510295791885913 O
atom 10.1076558798615661 4.7718188003968480 7.2175543344803001 O
atom 8.6982981126155856 0.1410945298992963 8.8081023917818602 O
atom 12.5890738358446903 2.4264999410825165 10.3766366755252673 C
atom 9.3273311084948691 3.9131281702266154 6.7675420019357198 C
atom 9.8829672199386724 -0.0312690836430612 8.4247663926105361 C
atom 5.6840515846203044 2.4214939243070326 8.7759284150430190 C
atom 8.9709831490222438 3.6445918834520703 10.6502213132552157 C
atom 6.5469809245549788 5.8956695664930434 6.9421704941037721 C
atom 13.0329477123009383 1.3945460960466363 8.2719929208259391 N
atom 10.0219291655245222 4.4778820056705868 10.0101814305968517 N
atom 8.7776746999646988 0.2438237092465206 6.3047764976903808 N
atom 6.4461197408967044 3.0939776641012218 8.4545061540040027 H
atom 7.9710498193229959 3.9979182408329397 10.3760016628264733 H
atom 6.6593252545164265 4.9090397528335084 6.5992107190306974 H
atom 11.4027113613248208 2.7465092988667172 8.5157848794375219 H
atom 9.1020074358731815 2.6417904130632750 10.2020611010821121 H
atom 10.9058139245193644 0.2869040290871301 6.3916144842503124 H
atom 13.0440075168049159 1.3667272480670163 7.1792948193780273 H
atom 9.9768432639102258 4.3005176671252343 8.9983945305201374 H
atom 8.7286728867078462 -0.0515577393694950 10.6624453077069781 H
atom 7.0268388539428273 0.8604051644569737 8.4136536703816596 H
atom 9.8562966865893689 5.5159319726148794 10.2072470381222562 H
atom 4.5507920470369934 5.9246684797379201 6.5497326462497485 H
atom 12.4012159124517840 0.6223177365895490 8.4807004278292109 H
atom 10.9494710475613779 4.1021132411598780 10.4246330520090300 H
atom 8.4431288431506299 1.1733076717871835 6.6400102849281417 H
atom 8.7703191362036819 9.4541219773538554 -0.1174720575041998 O
atom 4.8316740390305704 8.8634014143017446 1.5997028237091580 O
atom 3.9020207397702298 12.4081481344136080 3.6315317889468961 O
atom 9.8231701908023386 7.5071730428547703 5.3855426984627330 O
atom 6.4033622191779811 10.4362749514868991 1.7448032253833397 O
atom 5.1889374751439554 6.3408663860717782 3.4854735764520353 O
atom 9.4203604688680311 8.5648396104192717 4.8466656304945737 C
atom 5.6204973970161127 9.6784931309273521 1.0876285834025494 C
atom 6.3302299233669972 6.0453738102334738 2.9967942623234558 C
atom 2.2491408943096545 8.8056681764364875 3.2542760363665137 C
atom 5.4738623813198481 9.7682945100816507 5.1023323265735820 C
atom 2.8683894028550379 12.1981176842878511 1.5615015181042742 C
atom 9.7592984968487499 7.3235485374538172 2.6653864265959224 N
atom 6.4646409446114976 10.6169889820183840 4.4906034267364046 N
atom 5.1281879269594342 6.2053440926043892 0.7821768917381761 N
atom 3.0951312705040293 9.4530107051309678 2.9287367763303247 H
atom 4.5222535179987426 10.1559697626947276 4.7189328261323782 H
atom 3.2893022784774333 11.1701379603919158 1.2785239842046801 H
atom 8.7468236663483427 9.2150396962583230 2.8380569629426962 H
atom 5.6110251242591191 8.7893165994425697 4.7270504051319469 H
atom 7.2513158429661235 6.4335253223706452 1.0954180725077425 H
atom 9.8254985706979117 7.4464764123951470 1.5991418958252241 H
atom 6.3730403628106194 10.6223336722332249 3.4531673054009460 H
atom 5.5137623458940030 6.3981233644129398 5.1580176484852309 H
atom 3.5643474454146058 7.2940204469599470 2.9605456207673599 H
atom 6.4254289104610356 11.5973956712297515 4.8521055726142333 H
atom 0.8379468820096642 11.8117653747972593 1.2662417802555272 H
atom 9.0926939162908855 6.6326018034422241 3.0019854911360877 H
atom 7.4450476338228633 10.1998385566363368 4.6249562384835166 H
atom 4.8321555903271545 7.1559581026973875 1.0570474301831805 H
atom 8.9326707161950694 9.4774586940344943 5.4952411421792089 O
atom 5.0999245700906588 8.8520770211732707 7.2125271506148563 O
atom 3.8076948951370313 12.1585352260630906 9.2927229164106553 O
atom 9.8095174177782898 7.5319385381076938 10.7646294344877376 O
atom 5.8539703992723089 10.9247584700333533 7.1825757183217904 O
atom 5.3232585362561275 6.1771918629579030 8.9904039540603264 O
atom 9.3498211415771184 8.5379574061703725 10.1711042320159581 C
atom 5.4924894204844410 9.8739712067057717 6.6248228978820114 C
atom 6.4913643956856992 6.0849562684582326 8.4808062632790104 C
atom 2.3198178076853062 8.6763372567823307 8.6299284120455475 C
atom 5.5488997152272113 9.8075594619570126 10.4638450861594947 C
atom 2.8116245593554412 12.1194290273624272 7.1196036256914930 C
atom 9.7643256807141938 7.2804205916607989 8.0829708074852480 N
atom 6.5336456578803279 10.7117646273132276 9.8456073061596889 N
atom 5.3858602048121291 6.4231534482903605 6.2134405045139989 N
atom 3.0942422527257190 9.3807250929183734 8.4413825582289501 H
atom 4.5297678349344581 10.0946381195363113 10.1465504076626321 H
atom 2.9318853809618397 11.0623974724967180 6.8644872739514380 H
atom 8.7354463554949699 9.1703242187183207 8.2165880628562586 H
atom 5.6761139258853923 8.8074673790830662 10.0382807425184399 H
atom 7.4092752517908620 6.4928990097077826 6.4490302157661716 H
atom 9.6492296290579791 7.3074615490843975 7.0108577010232054 H
atom 6.4025684533044895 10.6613869532089893 8.7929150047357290 H
atom 5.2563705319832739 6.0955927311630136 10.6193702796388578 H
atom 3.5779684678037138 7.0373694811978096 8.4273064434057066 H
atom 6.3816659519692225 11.7252978123116236 10.2013202529335203 H
atom 0.7978828724883209 11.9298248190478429 6.8855485284614026 H
atom 9.0578211355821754 6.6196369608418690 8.4558290971264896 H
atom 7.4138790938571102 10.3900777776497151 10.1605736047609767 H
atom 5.2069718357896750 7.4047243274495127 6.4978203581234277 H
atom 1.7758553463543132 9.5159827977612661 -0.0800116000479076 O
atom 12.0528585294389696 9.0984619483049212 1.8880938408659613 O
atom 10.8938545186920983 12.3679835812149559 3.6163761525357057 O
atom 2.6636189745842818 7.6843945035428929 5.3818384577197742 O
atom 13.2518683402097981 10.9631238205854249 1.8810346163643803 O
atom 12.2026686086291996 6.2270932775380468 3.4492408102134093 O
atom 2.2563218295785044 8.7383568303644381 4.8241226796874246 C
atom 12.5876979749973046 10.0789744729660864 1.3228690376703856 C
atom 13.4321590289420865 6.2044974090059988 3.0143946976249998 C
atom 9.5592694967289820 8.6570752049189448 3.3130094192323689 C
atom 13.0344823263230207 9.7225206780436615 5.2517772734620047 C
atom 9.9021763540771577 12.2312970977997804 1.5865263102092049 C
atom 2.6038536960828882 7.4593883372706031 2.6294076654368133 N
atom 13.6959009698407446 10.8566004403629108 4.5791347804931171 N
atom 12.4048143177449450 6.5442292028602100 0.7873469534608485 N
atom 10.4794558150048189 9.2249353108145122 3.1385978897364044 H
atom 12.0227483439712053 9.7911549672381959 4.8554288057379162 H
atom 10.3873260559549472 11.2986221964476812 1.3359185486305800 H
atom 1.2590978873941070 9.0910534668190053 2.8537894025552908 H
atom 13.5610136890721495 8.8099545121533396 4.9560836102690837 H
atom 0.3623329541587488 6.5127431565450609 1.1159871921761428 H
atom 2.6545171259015832 7.5441096148345581 1.5977660349778395 H
atom 13.4772449305563828 10.9723315047179213 3.5468634291078409 H
atom 12.4574145362949587 6.3334049868609616 5.2333936558319500 H
atom 10.7297037360541268 6.9755615785152996 2.9295252504313258 H
atom 13.3516182516451831 11.7325475406228428 5.0648718691172903 H
atom 7.9563916095258591 11.5243692108685636 1.1756148845927978 H
atom 1.8704881137919278 6.7723575149015653 2.8985630895926815 H
atom 0.5537363651199140 10.7127171463614168 4.7204092306570713 H
atom 12.1483221051575061 7.4628279893890648 1.1534264825424756 H
atom 1.9563471224412201 9.7913137204128944 5.4003596614345675 O
atom 12.2293391419785014 8.9527794516568466 7.2944967064840416 O
atom 10.9104706843105106 12.2313500155246793 9.1323822099654439 O
atom 2.4400733375192147 7.4195942081462469 10.6456703889138655 O
atom 13.4097219135847361 10.8670781498929951 7.2631164956186920 O
atom 12.4199487870661773 6.2430215127327688 8.9112390376108106 O
atom 2.1516770285899218 8.5089055752005969 10.1054862531406897 C
atom 12.8571021124601987 9.8645518516736779 6.7552121720341569 C
atom 13.5940872671342809 6.0204495618058527 8.4216971645663694 C
atom 9.5673129909136918 8.5755819085738541 8.6668649840253362 C
atom 12.4681039167246386 10.1335326473373772 10.6005315695746685 C
atom 10.0300255774341327 12.0801640754870654 6.8806271800457575 C
atom 2.7079005267801080 7.4055710110479032 8.0322227093067138 N
atom 13.5923938999375000 10.7285395461063420 9.8807975932177960 N
atom 12.4065076849417260 6.3348866831581443 6.2994318074755400 N
atom 10.4269614319046049 9.1877870679351261 8.5080059738773066 H
atom 11.6339618191352425 10.7615602064435727 10.3924590752701889 H
atom 10.0885525811728787 11.0117022920430827 6.6231295306852305 H
atom 1.4223331933913161 8.9832071434740062 8.2472803432979163 H
atom 12.2858023544461723 9.1561951861701782 10.2393680971361967 H
atom 0.3510773540726443 6.4101356879651057 6.5646025269464827 H
atom 2.7419901251603078 7.5300335000113146 6.9661951412081029 H
atom 13.4759219874338996 10.6958363921185047 8.8299574121653155 H
atom 12.5130310651642382 6.6494825576851362 10.5870375497253182 H
atom 10.7406047873834076 6.8881944147063736 8.3218943354060837 H
atom 13.5945635266583764 11.7695370303275304 10.1277116975984427 H
atom 8.0441821151339798 11.9093985772366704 6.6973201809942031 H
atom 1.9491608953998805 6.7103908590443568 8.3125808158237877 H
atom 0.4049687651102032 10.2370926349655225 10.1701517129677690 H
atom 12.0725439231015503 7.3399530321726347 6.6382110822815612 H
