#=======================================================
# FHI-aims file: ../Intermediate_data/Reference_data/AIMS_PBE0_MBD/glycine_alpha_npt_fep_0.geometry
# Created using the Atomic Simulation Environment (ASE)
# Thu Aug 20 17:52:59 2020
#=======================================================
lattice_vector 15.1040680882764882 0.0000000000000000 0.0000000000000000 
lattice_vector 0.0119382387373068 12.3620197536187924 0.0000000000000000 
lattice_vector 0.9320980981506940 -0.0047361363784972 9.9710699401236997 
atom 14.0669600568354056 10.1574514589919112 4.3986377126337208 O
atom 3.8372229856309019 1.9377571256840576 0.4540764138168555 O
atom 0.6416009555428940 4.5314559103587486 2.9268370300064359 O
atom 2.4732950852110642 7.9546982423290782 1.9824091019541796 O
atom 1.8874588281671685 10.8585583961841916 3.4810761135128945 O
atom 0.6864910615750633 1.1209455829992176 0.9423747203261593 O
atom 2.7409952719321988 5.0859860413521538 3.5115990572348736 O
atom 0.5327862378322377 7.3318037025381262 1.1764880270536382 O
atom 2.7727670739618042 10.7897653538149587 4.3578011043288454 C
atom -0.0186058720746325 1.6885993097676766 0.0591884752999899 C
atom 1.8865856857063281 4.6984642501412859 2.7014710232048293 C
atom 1.2839321756894000 7.6525380331534487 2.1167672054737809 C
atom 4.3667865340167653 10.5915355563417695 1.1194056772046448 C
atom 13.9348244977615785 1.9705661151216916 4.0036968563919553 C
atom 2.3108059191349368 4.3856781618058553 1.3154552644119784 C
atom 0.7070284306085243 7.8577529703133600 3.5281093874034899 C
atom 3.1708247842001449 11.4174224888468583 1.2773121683044837 N
atom 15.1850586662350349 1.1794143772405756 3.5854722011944498 N
atom 3.5913513604307745 5.0407995960605483 1.0038809919767433 N
atom 14.5921155587371487 7.0092172515513234 3.6141112739100105 N
atom 4.1051771774315533 9.5436587678836560 1.4221797319891081 H
atom 14.2313754280978717 2.9732511665157082 4.0581650706309178 H
atom 2.5044001239069376 3.3119563565068706 1.2914253255351564 H
atom 0.4677291868409033 8.9243097156609643 3.7590370470920242 H
atom 15.3261902385417610 10.9996899684909177 1.7545453785373208 H
atom 3.2210331215847048 1.8131835094983568 3.0319210481116841 H
atom 1.5631790099835854 4.6369579784907025 0.5213136750740456 H
atom 1.4757853873122100 7.5882429974006662 4.2348097281176376 H
atom 2.6065842506876979 11.2418943953555157 2.2272382479737889 H
atom 15.3715407287805554 1.2244473611299733 2.4874664519391265 H
atom 4.0205881941798474 4.9247721924461016 0.0187752087943106 H
atom 14.1074950341083554 7.0984894534566276 4.6046675827570827 H
atom 2.4016868198771832 11.1099705071812878 0.5717389751306932 H
atom 0.8619715291139961 1.5096950654277519 4.1651170844251153 H
atom 4.3975158568658532 4.7051001328436719 1.6254525886452107 H
atom 13.8358683521996841 7.4493339695397145 3.0338419615255328 H
atom 3.3721291014899895 12.4394754275540596 1.1576546087619384 H
atom 15.0051384015770424 0.1998861222625406 3.7040714062390072 H
atom 3.5110116704884904 6.0415108163158173 1.1064778770117190 H
atom 14.8403526062402804 6.0850621039080313 3.2491588923687411 H
atom 3.9890598136847788 10.8328932996079761 4.1262066813065790 O
atom 8.8030222901915174 1.6365547273291068 0.5690877971132328 O
atom 5.7272324481382224 4.4274408302964696 3.0340906748325596 O
atom 7.5562806915614216 8.2083328977719496 2.0269234921395629 O
atom 6.9920719086839158 11.3229114321765127 3.6985097533520790 O
atom 5.8997971490351970 1.3696959324338733 1.0556080680659163 O
atom 7.8049410808637489 4.8224240207181541 3.7785425204899465 O
atom 5.6918834079054168 7.1744263886872819 1.3890849868370170 O
atom 7.8447352099881051 10.9635471623846197 4.5704668571545941 C
atom 5.0889811845814608 1.7791203699806069 0.2537404908926699 C
atom 6.9861980412200806 4.5197981355634091 2.8774912515377364 C
atom 6.4093419220916150 7.7105358596432021 2.2268784074444730 C
atom 9.4839146564722228 10.5841799925807507 0.9076501092471666 C
atom 3.9265481052611055 1.8284343978143667 3.7975294001838549 C
atom 7.5231541957743913 4.3500909918110020 1.4580949918783372 C
atom 5.8207909857603788 7.9736957055679660 3.5864829297400287 C
atom 8.2262720065128505 11.2554942506546638 1.1425624736206268 N
atom 5.1148949944647013 0.9571123067106451 3.5780372608460831 N
atom 8.7555021732318465 5.1321779234168492 1.2217961831125130 N
atom 4.5980528671446566 7.0790686484185441 3.7976987369035329 N
atom 9.4160741331511790 9.5379436535945210 1.0719913956947738 H
atom 4.2131557950887997 2.8759936799230834 3.8767525261307609 H
atom 7.9141103473312313 3.2912972767061408 1.3997532001767381 H
atom 5.5459892403577431 9.0194028673052031 3.7770608241927630 H
atom 5.1455872749063598 11.0473159209003864 1.7886455604625007 H
atom 7.8319291205624477 1.6411532776228657 3.2892864031599633 H
atom 6.7281712146105583 4.4871055651205536 0.7714557606735557 H
atom 6.6326547211671230 7.7985380361509202 4.3863396333670979 H
atom 7.9810512693289848 11.1521988516510167 2.1855443725255439 H
atom 5.5106931178498373 1.1637348553528803 2.5214555066420172 H
atom 9.2675340793585370 4.9069600862449612 0.3922738029068348 H
atom 4.3008404652471208 7.1250012336312327 4.8606623687304680 H
atom 7.3086786567570838 10.7328258818231923 0.6470673565250030 H
atom 5.7692491217083539 1.2951983593204841 4.2947602186561786 H
atom 9.4013630056291433 4.8238475075179483 2.1109991734597453 H
atom 3.8538179841593569 7.4755282433649226 3.2036972749076580 H
atom 8.2806185099845440 12.2578617956992844 0.8307606549683242 H
atom 4.8865550115237486 -0.0546957604560300 3.7275086665969557 H
atom 8.8213847407316131 6.1167598211227769 1.1481400018250243 H
atom 4.7483815400389000 6.1433245190222809 3.5025025003246650 H
atom 2.2091721366931303 10.7217660773192165 9.3607221929063957 O
atom 7.0548852481395139 1.8276723825758154 5.7416789870357610 O
atom 3.4829917351542532 4.7573934285892694 7.8819363705923902 O
atom 5.6599211020661730 7.8967004158393248 7.2348584305224080 O
atom 5.2238790488950366 11.4093260769372478 8.8832455611390220 O
atom 3.9097414358330536 0.8210237935868329 5.9162545614789135 O
atom 5.6263183467550473 4.9509505909538403 8.6032049609713450 O
atom 3.7366158070521442 7.4140907647567085 6.2525996209395620 O
atom 5.8857739519368542 10.7162097162047782 9.6885474986582416 C
atom 3.2513602697245565 1.4997835755540923 5.0993689339792150 C
atom 4.7366285133387409 4.7309028155046251 7.7692216165566466 C
atom 4.4397018671556623 7.7158276321331432 7.2360755381950943 C
atom 7.2865590477491304 10.6921321513755476 5.9470526773703707 C
atom 1.6205418237745457 1.8266457787127668 8.6725271805895723 C
atom 5.4369787270649592 4.4867721834536880 6.3969591744651524 C
atom 3.6146774935664343 7.9150099486545216 8.4925010804817802 C
atom 6.1544901589760572 11.5543206431616294 6.1830657304217382 N
atom 2.8172497135122483 0.9980282916028685 8.6187098543668714 N
atom 6.6908113008315757 5.1583774890145468 6.2323850500279878 N
atom 2.3633214693251112 7.1649541159302865 8.6216732469612403 N
atom 7.0412853928403667 9.6366352105319191 5.9737232107196734 H
atom 1.8400710055197471 2.8665002400761290 8.5522981096181141 H
atom 5.6242545554839705 3.4440654567182469 6.2340784172247687 H
atom 3.4565804986569577 9.0317326972067651 8.5853716876802437 H
atom 3.0664710306985086 10.6222807545083260 6.5407895507417484 H
atom 5.8984742059127120 1.6942826734218730 8.0398428616922288 H
atom 4.7526784593007321 4.8217625491569116 5.6016586869519225 H
atom 4.2759638427719082 7.6067112833905597 9.3380204889245491 H
atom 5.6633607541846347 11.4130832354051055 7.2564488622813661 H
atom 3.0958668268801306 0.8808102391781860 7.5908888836456363 H
atom 7.1891904339342165 4.9915437777241776 5.2268106908544638 H
atom 1.8781876427647919 7.2160726381831166 9.5069867845283653 H
atom 5.4108373709646509 11.3006330699938609 5.5457246517332468 H
atom 3.6181488963198358 1.4038913662638719 9.1247091398550300 H
atom 7.3939820292949321 4.7742688910596911 6.9635492549631337 H
atom 1.7200906478553153 7.4715594139974666 7.8478044380322709 H
atom 6.4538986464569170 12.5351506741721899 6.1669787420523177 H
atom 2.6610577566991505 0.0238870610195936 8.8617080471049636 H
atom 6.5663488118681634 6.1580885642692165 6.3441472850155414 H
atom 2.4476194050898710 6.1596760960161996 8.4965228275741360 H
atom 9.0907359604696065 10.9469839144911063 4.3703849393099254 O
atom 13.9222829969604209 2.0806879006373635 0.0941988420934394 O
atom 10.6253499825524926 4.3367398498188807 2.8629600442803587 O
atom 12.6425736557179924 7.7645119390405997 2.0118578158607012 O
atom 12.1493804596554931 10.9965149049969515 3.6083220748060150 O
atom 10.9145453491277653 1.5237447213885451 1.2536473617294677 O
atom 12.5612391125476002 5.2718066323364319 3.5452335631809389 O
atom 10.6557776743696540 7.1897196111832109 1.3545297124777023 O
atom 12.9224025849860720 10.6158247920705975 4.5204543153521621 C
atom 10.0298668242594342 1.6908165624409619 0.3645502068320340 C
atom 11.8145700142169279 4.7325697238389566 2.6905752636480411 C
atom 11.4234551094853902 7.5316739494831966 2.2434469471104777 C
atom 14.5963489767291037 10.5841270748558518 0.9854021224418694 C
atom 8.6393477670776431 1.9885687251324708 4.0239061355310399 C
atom 12.3037943809119721 4.3408727241335248 1.3309284071725656 C
atom 10.9672514031275785 7.9164387272268053 3.6051205524496006 C
atom 13.2757342341394313 11.2033702916287439 1.1968137251875015 N
atom 9.9275768620288751 1.2823446439424175 3.7083524501833693 N
atom 13.5802228232106348 5.0754501223246820 1.0072253921903862 N
atom 9.6211832348612916 7.3923415798230510 3.8759375931673103 N
atom 14.6294225547912333 9.4620067183638668 1.1304072722112322 H
atom 8.9151020315284679 3.0440180400236891 3.8382442977214608 H
atom 12.5421887315838134 3.2406179715699763 1.3324471458771787 H
atom 10.9810100116014251 9.0935405998892769 3.7052990974566735 H
atom 10.2151846968571665 10.9756653213865842 1.6053438531834350 H
atom 13.1855624309108368 1.8645454532857242 3.2006597974984321 H
atom 11.4908722910072392 4.5015362287006226 0.6369918217041555 H
atom 11.6959284749924510 7.5831099780854228 4.3366975156389609 H
atom 12.9828875445460969 11.1240466220045295 2.2065950434905290 H
atom 10.2469882495217117 1.4281647266752313 2.6924115087020510 H
atom 13.9831383805947400 4.9157708874407131 0.0532987325186855 H
atom 9.3327816341595078 7.6472991783884066 4.8879837900960323 H
atom 12.5397545162384390 10.8965533226619673 0.5453224468609078 H
atom 10.6522321868013918 1.6018565751125640 4.3707024456593224 H
atom 14.3785396210431315 4.8448188018955838 1.5398528768479254 H
atom 8.8861560360084901 7.7782705475144462 3.2296851696057582 H
atom 13.3683931704382974 12.2407164528318742 1.0879725486143954 H
atom 9.7455398883749051 0.2127504211855871 3.8994383547951386 H
atom 13.4711064744680531 6.1037420607975230 1.1353180370818974 H
atom 9.5817066120863323 6.3711353247142402 3.7741609328682757 H
atom 7.0122864795954900 10.2159255450057582 9.5819712007108286 O
atom 12.2533108713579342 1.8602961599763015 5.7457007341281159 O
atom 8.5895521879472980 4.2373974048652183 7.9689331103270202 O
atom 10.6164598047693914 7.7299566646812847 7.0299080819869930 O
atom 10.1206736401868209 11.0234500269707514 8.4949352958271529 O
atom 9.2065728602744166 1.4736210523638242 6.2511708423672792 O
atom 10.6374152238295583 4.7630820840159558 8.6983510303404845 O
atom 8.5563198567104681 7.6504213241574721 6.3506032474532690 O
atom 10.9284627107763122 10.7872253030197847 9.4522169392574771 C
atom 8.2664365597115008 1.7700185212979085 5.4794716601591853 C
atom 9.7763909219912595 4.5597986438148732 7.7968975866790382 C
atom 9.3689773579907047 7.8173767462151105 7.2443307032794015 C
atom 12.4229650973854415 10.6684779283455100 6.0189678655086682 C
atom 6.5567707036613694 2.0215629266072526 8.8467852486833287 C
atom 10.1816877769958403 4.5659688505381437 6.3545720768207250 C
atom 8.8757312442033065 7.9770295222366299 8.6960226504449096 C
atom 11.1085417286090031 11.3602713459554945 6.1720588436426613 N
atom 7.7766830157674640 1.2446672238140377 8.6659124649771471 N
atom 11.5097639187963274 5.1839896678658608 6.1531672158535722 N
atom 7.6078754733383462 7.1584452357676591 8.9209758989923014 N
atom 12.3542249727411093 9.6131926584014806 6.3189055302385233 H
atom 6.8788279773991778 3.0137702684711862 8.8305924248641094 H
atom 10.2141263423591777 3.5172824208890705 6.0981327819581850 H
atom 8.5825141305356762 8.9756399088133918 8.8575275468379076 H
atom 8.1266279305272615 10.7907178728631479 6.5940776997154540 H
atom 10.7273224384336547 1.6368881089959733 8.2166409805811575 H
atom 9.4084010630407651 5.0324491790714214 5.8087786622082129 H
atom 9.6986018663891276 7.6998464792135204 9.3777087825991075 H
atom 10.6937196831225307 11.1084358931592035 7.1323567973922497 H
atom 8.1984902009406593 1.2284108987249391 7.7202198032997940 H
atom 11.9474993391642457 4.9351705253888358 5.2255724160918176 H
atom 7.2970896750041137 7.0957377317618588 9.9343503308159988 H
atom 10.3507069903245537 11.0685359285850478 5.4474035188701437 H
atom 8.5567431985096629 1.5520186618022997 9.3181234243623710 H
atom 12.2413514655306681 4.9136912208521659 6.8335304048852841 H
atom 6.8464952474856391 7.6032716312720980 8.3537508057955279 H
atom 11.2212564826447458 12.3877748103273362 6.0033571366633423 H
atom 7.5810991045392457 0.2650648840211436 8.8945699542674959 H
atom 11.4792303915293683 6.2039682317570053 6.2120646436666149 H
atom 7.7160922207576403 6.1861349584659031 8.6005590747263749 H
atom 12.1545134789707365 10.6039183039682303 9.2374768116156698 O
atom 2.0787987378584547 1.8649423362224697 5.2286575194534528 O
atom 13.6103330086783991 4.5529193395779499 7.9222067592408409 O
atom 15.6183489977114025 7.5918414026938263 6.7561117733574472 O
atom 15.1829948749639598 11.1735246947854776 8.7114746261155371 O
atom 14.3275269342400993 1.1598083601653444 6.2290512333593258 O
atom 15.7500612149860348 4.7021367402493057 8.5952673022364330 O
atom 13.5630245626183275 7.0809736865149233 6.0664350647434393 O
atom 16.0636516527399351 10.8532666236942497 9.5773144409196824 C
atom 13.4720060757913433 1.6052380177336361 5.4169758270529824 C
atom 14.8307744980334864 4.5759650087716430 7.7290570633579954 C
atom 14.3823496972358882 7.4655797110838344 6.9440226144752506 C
atom 2.3139809826289013 10.4102394308363913 5.7622110642967321 C
atom 11.5128860645653930 1.9431071076713879 8.9249976460846572 C
atom 15.3379908911943303 4.3738722173807973 6.2754600780961081 C
atom 13.8213688955772458 8.0026946188128427 8.2367497160429330 C
atom 0.9450523572060695 10.9810100116014251 6.0662763115687408 N
atom 12.7235906925389894 1.1605862507213656 8.6394006848025420 N
atom 1.3843541422310097 5.1993834340390990 6.0176978401110830 N
atom 12.6275979395714604 7.2846010919278523 8.7250215636897863 N
atom 2.1787338613309899 9.3181234243623710 5.7001914907146238 H
atom 11.7627106438155078 3.0249412001974516 8.9370628873617228 H
atom 15.5325693656494597 3.2963244605715847 6.2477841079737164 H
atom 13.5832920512548014 9.0724793453793122 8.0874158963767986 H
atom 13.1255537308749055 11.1532572061490036 6.7125075680403326 H
atom 0.8416669980700926 1.5212470047732931 7.9432150960259067 H
atom 14.5569252716790416 4.6653589214442155 5.6422994996746691 H
atom 14.5504163915164142 7.9754949082145465 8.9964365746988602 H
atom 0.6699807314064475 10.7735725299957394 7.0915043137699056 H
atom 12.9704518791947354 1.2239816851508585 7.6579356410931876 H
atom 1.7686214933605640 5.0501025320978643 5.0522774505912302 H
atom 12.4467251558652787 7.4684372682284019 9.7111433671902887 H
atom 15.2747542099395357 10.5474021737756605 5.5169374093879675 H
atom 13.5520705935641494 1.4887555216850554 9.1570418697685696 H
atom 2.2042031623250757 4.9452989779345833 6.6920813262291610 H
atom 11.7201647929963801 7.5074376314792666 8.2339450766232645 H
atom 0.7815842132193027 11.9947019497745178 5.9496456458904419 H
atom 12.5504968143930196 0.1335590458736204 8.8988562899843480 H
atom 1.0522477925348039 6.1368685565845533 6.1361806261608614 H
atom 12.6441082697400748 6.3137195931983809 8.6226257660094294 H
