#=======================================================
# FHI-aims file: ../Intermediate_data/Reference_data/AIMS_PBE0_MBD/glycine_beta_npt_fep_0.geometry
# Created using the Atomic Simulation Environment (ASE)
# Thu Aug 20 17:53:01 2020
#=======================================================
lattice_vector 14.9964916453284793 0.0000000000000000 0.0000000000000000 
lattice_vector -0.0025929685200711 12.4963672735934139 0.0000000000000000 
lattice_vector 0.9612822234327185 -0.0042387097644427 9.8072102049726766 
atom 3.2042793698815513 2.6557289418017800 3.0737419260996877 O
atom 14.3377929728705862 5.7517862724915485 2.1111420513169739 O
atom 0.1769515802911364 2.2697153057505450 3.7601641946323818 O
atom 2.3031010983895825 5.4436463604022860 1.4559306569299515 O
atom 14.4253188898542088 2.4396076615401006 2.7737566354174237 C
atom 3.1585478720234819 5.6253658277068581 2.3638506465741052 C
atom 15.0230245925930426 2.5689174141042979 1.4170149620389256 C
atom 2.7771169109485356 5.7011440097628130 3.7609420851884030 C
atom 0.1457512896904444 3.7312129073399145 1.3020935388748773 H
atom 2.3636442674469973 0.4567223000618260 3.7150253752931852 H
atom 4.2865526795242808 1.9712222949104443 0.8384178497612688 H
atom 13.3663293791672206 5.2218364247139188 4.2162673573128844 H
atom 1.3212021293360543 1.8774679617061598 1.3310554097123244 N
atom 1.4654717227293153 5.0298244599164104 3.9734967107918622 N
atom 1.7665100761370776 1.8886865193848350 0.3740753973139278 H
atom 0.9670608389917340 5.1533450133766125 4.8928098866068588 H
atom 1.9873251585973346 2.3206539077387167 1.9576488984737457 H
atom 0.7848333615281264 5.2602546929908911 3.2121006096216842 H
atom 1.1513785665888683 0.9119205696465490 1.5512301877012986 H
atom 1.5526272156386429 3.9678292224551353 3.8068376279936609 H
atom 3.3266569004839264 9.1887925047082142 2.8134396373194908 O
atom 14.5173957311791835 12.0480959341980238 2.0820108437598486 O
atom 0.6600798250777680 8.5155732085379228 3.7477338210535103 O
atom 2.3521452458263559 11.4709223087201604 1.1777474689062442 O
atom 14.7155726109274720 8.5445721217827995 2.8750411608748938 C
atom 3.1523723735277205 11.7967367409258266 2.0885567663299058 C
atom 15.1639974117250702 8.4513310905100401 1.4070981803927762 C
atom 2.6218351390037080 11.9098219190358652 3.4562577005350712 C
atom 0.1156305206777003 9.5062988541046742 0.9199799391487291 H
atom 2.6909245206323775 6.7883386678211872 3.9368247274365711 H
atom 4.5429813908418399 8.4558290971264896 0.7062029141000935 H
atom 13.5742431202970018 11.4029230322244199 4.2876745352921484 H
atom 1.5285761096718613 7.9768178513370316 1.3010404761493792 N
atom 1.3929162301197342 11.1406627876229454 3.5409631027815562 N
atom 1.8888505643320230 8.0658783823427385 0.3108863420115426 H
atom 1.1261209364943801 11.2768730115140237 4.5048647535967952 H
atom 2.2445793864233257 8.4978457706966193 1.9538070716460485 H
atom 0.6424264720513249 11.6254949831513379 2.8650238355514355 H
atom 1.6046030050348432 6.9197333787464217 1.4808390300401035 H
atom 1.5961044184159980 10.1650716113774244 3.2467723029757778 H
atom 8.3713194904621311 2.3475996132574966 3.1213996291440962 O
atom 4.3886997638976117 5.8524887029751254 2.1689652493145588 O
atom 5.2789452334253619 2.0257857610542258 3.7760924298271039 O
atom 7.1155289608742383 5.2640224350037279 1.2173669695384322 O
atom 4.4319229615954496 2.3918282477284230 2.8888632706186193 C
atom 8.1028149543225254 5.4776195397877068 1.9643641577634807 C
atom 4.9769914033768403 2.4220283933285165 1.4694458438692608 C
atom 7.7814456110084116 5.5112752128237306 3.5175152588786283 C
atom 5.1015650195625408 3.4651743371806218 1.1795360880078443 H
atom 7.9661813886322506 0.2762358157474090 4.0555932692008065 H
atom 9.4721669215445523 2.0229282039096574 0.8608496733461287 H
atom 3.5241299744910539 5.2158725971177553 4.3678025543348342 H
atom 6.2005285796385436 1.7341561791335784 1.2776825923787796 N
atom 6.4862842940953565 4.8410246010202966 3.8213952941134890 N
atom 6.5973056809343182 1.9718731829267071 0.3117700680173627 H
atom 6.2667286534877045 4.8968898431966039 4.8608952067200253 H
atom 6.9485735388166008 1.9854412875909155 2.0800634714835504 H
atom 5.7412556452365653 5.2900791227441983 3.2891858594826546 H
atom 6.0539464816671789 0.7433194063445395 1.2735073838842161 H
atom 6.4939044464808706 3.8727678214458354 3.5060903220728452 H
atom 6.2213252455240120 2.7607177080022085 7.9613129579415052 O
atom 2.4881702576802884 5.6594448425420785 7.0700726351856451 O
atom 3.3650222510359988 2.0638071463944518 8.6477616853366488 O
atom 5.5416499869159930 4.9213854580525398 6.1556014311989449 O
atom 2.5310389066213004 2.3803451014252510 7.7961038208055475 C
atom 6.2690570333832794 5.3204538968364590 7.0784336357197519 C
atom 2.9667581616705503 2.4550437618932581 6.3607105329090565 C
atom 5.7953375600837624 5.5569432094119211 8.5165786453110126 C
atom 3.0250629109647207 3.4248616143522517 5.9722415144224898 H
atom 5.5054013453598971 0.3898872135138715 8.5816145292123860 H
atom 7.0511280896716562 1.5064459171189279 5.8342320878848293 H
atom 1.4558618638875824 4.8512483054708619 9.2565801103043590 H
atom 4.3415871134196662 1.8900041707348301 6.3027127064193031 N
atom 4.4339814610940360 4.9181892274686154 8.8108541134766281 N
atom 4.6920876642909075 2.0300773885435679 5.3731599508362713 H
atom 4.0676320516154219 5.1448358432127872 9.7885090809932240 H
atom 5.0480757832342169 2.4019090743217606 6.9402654560073929 H
atom 3.6839309201422918 5.2592175055828623 8.0783140476941000 H
atom 4.3931131021542225 0.8476625763011957 6.4282335498807042 H
atom 4.4820836730276001 3.9385339699508224 8.6491375461840327 H
atom 8.4048164103234573 8.8400117798962050 3.0265393154894142 O
atom 4.3645798648884604 12.0337023130253851 1.8967194300245653 O
atom 5.2108348297073315 8.7495224703182135 3.7964392950509267 O
atom 7.5107714481479304 11.5269092616637359 1.2009942254545549 O
atom 4.5865485537515251 8.9101806831128219 2.7277817160248157 C
atom 8.4025938658776838 11.6740734546089957 2.1413210298271070 C
atom 5.3004509968244831 8.8555695910166303 1.3844970200882383 C
atom 7.8901386179517985 11.7624989729159104 3.5793019944711788 C
atom 5.5896463633997575 9.8616942945291086 1.1077320270918349 H
atom 7.7210135691732846 6.5807953507657020 3.8170295818092876 H
atom 9.4224242601391097 8.2801422504604485 0.6958574988822589 H
atom 3.3503217070589431 11.4526656936298643 4.1292812011232343 H
atom 6.4695093753022430 7.9809983516040850 1.2939283339228984 N
atom 6.5307881007357595 11.1418269775707319 3.6845818081585548 N
atom 6.9556115962282217 8.1524517802781737 0.3303653565470153 H
atom 6.1157543843496889 11.2985692787227823 4.5801984267635953 H
atom 7.1678116730748549 8.2919429031130161 2.0251824989903726 H
atom 5.9019138580311745 11.4934123418024097 2.9740237652992398 H
atom 6.2393172719898109 6.9353970253166475 1.4249261619113873 H
atom 6.5892621867496075 10.1035282973194125 3.7330597359389039 H
atom 6.3291715688690084 8.6555405908968623 8.0414303934392102 O
atom 2.6291854109922359 11.8956399687628256 6.7501849881687130 O
atom 3.4174954670462534 8.1721371739407527 8.6825815483204600 O
atom 5.4537007281331729 11.3672564856422174 6.1605227796145900 O
atom 2.5787759862530577 8.5231404431985389 7.7987497070505185 C
atom 6.2620718936965574 11.5866533730751708 7.0599653497298576 C
atom 3.1005976714861379 8.7339646591977864 6.4218305051678755 C
atom 5.6760610081604934 11.8106011848494727 8.4492672992389615 C
atom 3.0833941191213396 9.7663894719852724 6.1665024825282231 H
atom 5.7067003708772512 6.6458841523919761 8.6309867665435345 H
atom 7.2934383519860537 8.4722865095702069 5.5422320818898854 H
atom 1.4694564274142408 11.5608824410491575 9.0704684718331325 H
atom 4.4197465930960949 8.1611302871616758 6.1445416266949673 N
atom 4.4199265133607524 11.1524634402755130 8.5742589654513672 N
atom 4.6086311203520482 8.3440139444140353 5.0733122462387454 H
atom 3.9522925784246685 11.3906990377726558 9.5274130263395378 H
atom 5.1019936531342260 8.5712426551321013 6.8225235181062063 H
atom 3.7851836949648225 11.4524011050053680 7.7705974774040323 H
atom 4.3720042216918475 7.1412998929002507 6.2957275667325812 H
atom 4.4545082465825168 10.1466562431124299 8.6388715075535476 H
atom 13.2336646428443991 2.7224105669475263 2.8989388054394674 O
atom 9.2785938838625128 5.6999798198150264 1.5630520074438266 O
atom 10.4634746620851971 1.9855524148132044 3.9074289312549491 O
atom 12.2915703864602079 5.2809084810191296 1.2144617864414546 O
atom 9.6508171608049622 2.1888252714693075 2.9820302170765207 C
atom 13.1373543835274749 5.4669830770829249 2.1692457132565259 C
atom 10.2471999204213091 2.3242470212593869 1.5557387778627283 C
atom 12.5602865934994092 5.5911809774218391 3.5745552745477016 C
atom 10.5838095685064548 3.3390661069728385 1.2886153943429977 H
atom 12.6546388969950581 0.3355618771321374 3.8642163171020911 H
atom 14.3747295448503749 2.2400443373994459 0.5925938505135506 H
atom 8.5831491432344684 4.9447062994157100 4.0716643822527576 H
atom 11.4183750078950474 1.4938991245452780 1.4384307653057169 N
atom 11.3268802615439661 4.7848365607221037 3.7018065276133125 N
atom 11.7751463091668676 1.7156085165563353 0.4138589428933041 H
atom 10.9392579266557917 4.9138340987093940 4.7211871212130925 H
atom 12.1904446141774354 1.8290588269681800 2.1523226248336944 H
atom 10.7517704273371830 5.0095728465974068 2.8843652640021697 H
atom 11.2414710535563209 0.4611779724983563 1.4610266338377647 H
atom 11.5673384034868860 3.8411336055009682 3.6516722750436119 H
atom 11.3052369120601099 2.5224291927801668 7.9431621783010078 O
atom 7.5091839164009482 5.5093701747273514 6.9689997806277724 O
atom 8.2613035403962591 2.3866211435983211 8.7322183742761066 O
atom 10.4842184102457665 5.1991241371870931 6.0658000520446462 O
atom 7.4246213920116908 2.4499689520754044 7.8092274165806010 C
atom 11.2884090755420967 5.5359348726268554 6.9289939806038188 C
atom 7.7342959181230366 2.1937624952024222 6.3749983186318975 C
atom 10.8306707551622008 5.7071766304013458 8.3376638174261082 C
atom 7.7387410070145872 3.1017724449789053 5.8365075500555035 H
atom 10.5707918081812000 0.5931865290324240 8.6914188083786605 H
atom 12.3523728523696299 2.0322205564019939 5.7622110642967321 H
atom 6.5213687457036658 5.1606212005502821 9.1835536499431711 H
atom 9.0696217882347430 1.6197798085359940 6.1719000904679628 N
atom 9.6381169068291026 4.9666830305664345 8.5256275762688105 N
atom 9.4656051236570260 1.7850947811217501 5.1577636434057137 H
atom 9.2145105190093268 5.2965880029068257 9.3414072233181109 H
atom 9.7777667828386452 1.8954123622195498 6.8865539652344916 H
atom 8.9206054749180055 5.1418777423909106 7.8112912078516779 H
atom 9.0341139948272389 0.6035319442502586 6.2713854132788533 H
atom 9.8085648987301006 3.9861810894502510 8.5574840466582547 H
atom 13.4889397477591544 8.5732535286782792 3.1900127512486707 O
atom 9.6440966097427356 11.6889433353057282 1.9023340006363927 O
atom 10.3537233006438214 8.0010541693409607 3.6265945652137814 O
atom 12.5934660070113420 11.1497646363056422 1.3780516411954902 O
atom 9.6298617417447954 8.5812970228629908 2.8112700105986148 C
atom 13.3546874796893498 11.5763344167197850 2.2369063163129113 C
atom 10.1532180409999579 8.7725416806494572 1.4017693654954058 C
atom 12.8079944637535483 11.7555667509540864 3.6464916297759591 C
atom 10.2783155426621633 9.8619059654287060 1.2557640707254440 H
atom 12.2756421512654867 6.6206953153398569 3.7621062751361900 H
atom 14.4529948599766005 7.8884981684799165 0.8513297746367249 H
atom 8.4906489601103026 11.1924692402994665 4.2750854085385788 H
atom 11.5061125957782693 8.1325017979910950 1.2438364155331170 N
atom 11.5680792516354760 10.9184612607703215 3.7880994616067802 N
atom 11.8399705221686453 8.3587250719360728 0.2907511476873172 H
atom 11.1718313275886967 11.2579813837249354 4.6877854532565850 H
atom 12.2505062319382656 8.4041813976246651 1.9108378790277278 H
atom 10.8884039930274579 11.0876921449986359 2.9363992628957591 H
atom 11.3650868589213410 7.1390773484544754 1.3064857100415284 H
atom 11.7780567840363357 9.9141357599044238 3.8760593039345790 H
atom 11.5373869711938184 8.9557428442512137 7.8927845041967695 O
atom 7.5324147976317883 11.6314746860649709 7.0065184475814535 O
atom 8.4631317431626076 8.7174543290291719 8.5919334855677718 O
atom 10.5016283417376712 11.5147381849368724 6.1317884549942105 O
atom 7.5402995386418006 8.7204706393484361 7.7460436530507062 C
atom 11.3021147662910444 11.7667323909078618 7.0441429499849342 C
atom 7.9996783084935768 8.7720654211253617 6.3066286180618603 C
atom 10.7704503842266739 12.0302626609069208 8.4553528376023959 C
atom 8.3488823751047825 9.8015797590433795 6.0078551432797918 H
atom 10.6846707521647293 6.7228265243957184 8.5406032924153426 H
atom 12.5740452019732576 8.3181371769382242 5.6594448425420785 H
atom 6.3849997686378854 11.3878414806280865 9.1221161713349570 H
atom 9.2347250899209019 7.8539958118455022 6.0651121216209534 N
atom 9.5278892858636315 11.2639081689136695 8.6281292093989670 N
atom 9.7663894719852724 8.1039262265454131 5.1327706019357224 H
atom 9.1744518012604743 11.3872593856541933 9.6518225975780503 H
atom 9.9119132154586485 8.1550447487982431 6.8198247141363364 H
atom 8.7468765840732434 11.6638603337034077 7.9789345603330082 H
atom 8.9761161683374855 6.8710490718389652 6.1569772920463288 H
atom 9.6738363711362041 10.2462474013731200 8.4587924897208566 H
atom 1.3309919084424451 2.5337006681837408 8.0702176357844913 O
atom 12.5129252297144387 5.6846865973190965 6.7254724106406885 O
atom 13.3579683786331138 2.2777693834802353 8.7882053272196821 O
atom 15.4443026005172452 4.9702073510447349 6.3682248498447729 O
atom 12.5055696659534217 2.4288600716130300 7.8508207483515378 C
atom 1.3029878484256772 5.3244227262039150 7.2305720948055550 C
atom 13.1057095840376281 2.4466986366766212 6.4480776967179825 C
atom 0.7842988925066424 5.4173991688521772 8.6269650194511822 C
atom 13.2257269841094889 3.5778097146290153 6.2314325309797987 H
atom 15.7310108340222463 0.5510216858325743 8.4518602677590344 H
atom 2.3278824689599764 1.8547821330417831 5.7013027629375115 H
atom 11.6492550416311715 5.4541769876572683 8.9837892384479012 H
atom 14.3376342196958877 1.7489360996979835 6.1772976984077026 N
atom 14.4330977954144224 4.8943392088564517 8.7486228689949233 N
atom 14.7504453916361840 1.9722488987734927 5.2240483856147142 H
atom 13.9347715800366796 5.1706808600536593 9.6890237581823353 H
atom 15.0305389095287598 1.9839331324312823 6.8560204379675325 H
atom 13.8369796244225718 5.0964002496123584 7.9163858095019055 H
atom 14.3324482826557453 0.6652128443930106 6.1671904129519151 H
atom 14.4272239279505889 3.8310421953626514 8.8558870973660273 H
atom 1.3331033256659315 8.7214231583966271 7.9596195907447234 O
atom 12.5393840921641448 11.8074790390804072 6.7816181167589624 O
atom 13.5529172771625390 8.7713774907016706 8.6762314213325311 O
atom 15.5688709249304544 11.6136414127738696 5.9831425657517681 O
atom 12.7474036687437238 8.8079436386071617 7.7063553593761487 C
atom 1.3841848055113317 11.8518770102710107 6.9235434549391792 C
atom 13.3652710246692319 8.8051389991874931 6.3016014341964164 C
atom 0.8284375668452402 11.9911564622062592 8.3200422150346043 C
atom 13.5607491004476532 9.8220060008545520 6.0404524618178286 H
atom 15.8203888713773502 6.4742719705431906 9.0074434614779371 H
atom 2.3136317256445653 8.2555355083822235 5.7734825397003062 H
atom 11.5327831291275711 11.7320712810987491 9.1994289674129952 H
atom 14.6109542688013399 8.0353448550757793 6.2010577568875371 N
atom 14.5559198349059518 11.2557588392791601 8.5281147093390839 N
atom 15.0650941838880748 8.2634202493922349 5.2598419347366754 H
atom 14.1401452703712902 11.3598480041562997 9.5206395575524123 H
atom 15.2255407257830839 8.2524662803380586 6.9371433102383273 H
atom 13.7458023844208874 11.5570723648564009 7.9404633743311370 H
atom 14.3752058043744686 6.9981045293224478 6.0932643512674396 H
atom 14.5353348399200826 10.2556138386803148 8.3812151050183221 H
