#=======================================================
# FHI-aims file: ../Intermediate_data/Reference_data/AIMS_PBE0_MBD/succinic_beta_npt_fep_0.geometry
# Created using the Atomic Simulation Environment (ASE)
# Thu Aug 20 17:53:08 2020
#=======================================================
lattice_vector 10.8876843119688242 0.0000000000000000 0.0000000000000000 
lattice_vector 0.1478203727340113 17.8445024323247559 0.0000000000000000 
lattice_vector -0.7168658356673246 -0.0837740502882556 14.7904088574802177 
atom 0.1591394740899951 8.2868628015226733 4.6949716802979262 C
atom 4.9506225010594642 0.6407913143519330 0.1329081578573576 C
atom 4.9223168100107699 3.8519235296079586 2.5962758778772930 C
atom 0.3881938463170904 4.9195915471784506 2.4906150565706411 C
atom 1.2099426127350450 8.5618762178249064 3.6404748844548966 C
atom 3.9353324475944080 0.3281798545086697 1.1657510206715480 C
atom 3.8604644504067229 4.1204756916999727 3.6414697376830056 C
atom 1.3148678776655949 4.7098838951745794 1.3537835725566207 C
atom 1.2174410543532914 0.7138389418030783 3.0613115525208165 O
atom 4.0488991770010312 8.1808685985491554 1.8507762612668976 O
atom 3.8369848558688546 5.1136778867920150 4.3751739934133225 O
atom 1.2397935013508021 3.6992241426382213 0.6499831231669606 O
atom 2.1379554625235047 7.6543901535249281 3.6597686869532216 O
atom 2.9479617857862803 1.1918130001845073 1.1792873747008170 O
atom 2.9511897670051441 3.1746560274828619 3.7091991337817598 O
atom 2.1629273369035364 5.6741559700641142 1.1867487739116338 O
atom 5.1121961904948323 7.5140523470916936 4.3400472076250933 H
atom 0.1229755008937384 1.4245398625196217 0.4351794942552763 H
atom 0.2027965971320081 2.8955414875009251 3.2902018798007231 H
atom 5.2139940178838273 5.9124974030110558 2.0018616576272028 H
atom 0.9893497847193654 8.0552948373628563 0.7059224501581266 H
atom 4.2411916057405064 0.9075601491148376 4.1419391209191740 H
atom 4.3271458662946181 3.5583783260459523 1.7301608909036730 H
atom 0.9256421357129659 5.3524691204006016 3.3313348273650343 H
atom 2.8239279303945537 7.7939871118095709 2.9721451860653105 H
atom 2.3413659052643463 1.0289481182615938 1.9660734002777316 H
atom 2.2954227365066782 3.4384297190164603 4.4448930959682951 H
atom 2.8788671123851208 5.5443487908858620 0.4992099413835622 H
atom 0.1466667663312042 8.2673890787596918 9.6250991465038478 C
atom 4.7457409455664186 0.5879900084473020 5.0732275778789067 C
atom 4.5973278943135343 3.7512369744418508 7.5219900058266047 C
atom -0.0014393621172639 4.9556761437873575 7.2196710434762768 C
atom 1.1272480840347374 8.5511339196703275 8.5620878887245038 C
atom 3.7403729655200020 0.3334134175012213 6.1494629751106125 C
atom 3.6118040611043960 4.0575882674295141 8.6042633154693338 C
atom 1.1380432999142169 4.6931566023338753 6.2298449992328164 C
atom 1.0407963968665717 0.8069106363561602 8.0430179251861933 O
atom 3.8826052265046362 8.1570556223444211 6.7292295691085471 O
atom 3.6196570514794688 5.0969029679989024 9.2591730788244284 O
atom 1.1708787482143008 3.6881061286368553 5.5200066374321333 O
atom 2.0283363953943772 7.5892484341737543 8.4522306918333303 O
atom 2.8760095552405529 1.3103169533242456 6.2740312995238234 O
atom 2.6284551463886241 3.1906371804024833 8.6333680641640083 O
atom 2.0015494430502958 5.6399182020541963 6.1565539502471340 O
atom 4.9090132939710580 7.3055035932631194 9.3960712331392031 H
atom -0.3071027246812348 1.4402881774496861 5.2280965915695194 H
atom -0.2025849262324105 2.9581166971944768 7.8402901210965545 H
atom 5.2115174683585339 5.8068207063869348 7.1546351595749025 H
atom 0.7401496346230648 7.9922169092827602 5.5650396213215316 H
atom 4.0017706512056170 0.9739877691810668 9.2643590158645726 H
atom 4.0167569508971299 3.6074806829801145 6.6300088349221538 H
atom 0.4160920708840592 5.4127424090610301 8.1017565998245384 H
atom 2.6728954517591483 7.7652527871891923 7.7257232466893324 H
atom 2.2453837358417963 1.1093777683362067 7.0069947071055489 H
atom 1.9359526312649877 3.3966405916633962 9.3093390820290693 H
atom 2.6523845415881366 5.5128627445707128 5.4063393643482014 H
atom -0.2046063833235680 8.2992455491491359 14.5607882655966971 C
atom 4.5324031376344482 0.5738186417192400 10.1319451155903941 C
atom 4.3268706941251409 3.7717531763853525 12.5062046786522139 C
atom 0.0158911927872928 4.9190359110670059 12.3089803179521144 C
atom 0.8057834888158029 8.5616645469253090 13.5056617488273663 C
atom 3.5035555630501634 0.2773100455628670 11.1588664849883408 C
atom 3.3357217067591955 4.1150675002152530 13.5673108983351796 C
atom 0.9457984971271512 4.6371590658453199 11.1618827953076085 C
atom 0.8503243378636360 0.6240746050562095 13.0263859144134120 O
atom 3.5095299741913069 8.0997457262783605 11.6877262276330427 O
atom 3.3502793728790232 5.1115029682986499 14.2841873175474845 O
atom 0.8585107099055748 3.6909531022364437 10.3953166324147581 O
atom 1.6707501611591056 7.5791940664428665 13.4016255016751256 O
atom 2.5909999807048218 1.1850554067148527 11.2439052689016936 O
atom 2.3903730102936893 3.2055811459140768 13.6674312338448622 O
atom 1.8560627419843487 5.5562552789882291 10.9988962026174253 O
atom 4.6972365589236205 7.3422814120682087 14.3643047530451895 H
atom -0.4327770295448430 1.5236230106212767 10.1956051386443853 H
atom -0.2680229848430207 2.8590970503627018 12.9405533646265702 H
atom 4.6827159352112222 5.8121124788768759 11.7472057504199796 H
atom 0.6586245876430342 7.9163858095019055 10.5068142787778136 H
atom 3.7488345097314180 0.7859922597034235 14.0005483120866465 H
atom 3.7691072901403819 3.4079438177019101 11.6805823347716231 H
atom 0.5409779016466663 5.3426793412942111 13.1568281062904582 H
atom 2.3135417655122361 7.7912353901148022 12.6506700676276029 H
atom 1.8891098611840302 0.9471955250644957 11.9172304005217828 H
atom 1.7082794116577671 3.3025475850197559 14.4131478131273436 H
atom 2.5093638065025021 5.3754354130069455 10.2661973836601987 H
atom 0.3412611161038038 17.2471565701152372 4.7611452952846376 C
atom 5.0764291002353206 9.4861901186428987 0.0869279466922605 C
atom 4.8888410572394028 12.7997922163941382 2.5479937456790713 C
atom 0.4951035259313680 13.9811804247734628 2.3378786271934748 C
atom 1.3963982164181155 17.5507455578631522 3.7640377720950187 C
atom 4.0641500653170413 9.1914913086780832 1.1694870120494463 C
atom 3.8980624939477537 13.0602532583490341 3.6462587917864022 C
atom 1.4798970945368943 13.6464228970597965 1.2497632007218509 C
atom 1.2043915433930970 9.5218037475002006 2.9104378270601088 O
atom 4.1989420941808175 17.2480032537136267 1.9670365028709009 O
atom 3.9175838426631455 13.9983786853657701 4.4100467741220335 O
atom 1.4524962965839796 12.6555384983183501 0.5442799676803894 O
atom 2.3547699649813665 16.6700887800871733 3.6923130877663581 O
atom 3.1618869804646343 10.1491962939076039 1.2851492833620863 O
atom 2.9550474691503110 12.1353043448322513 3.7100987351050501 O
atom 2.3876900816412894 14.5830666277793508 1.1551780592366458 O
atom 5.2217623398990591 16.4111623521543599 4.5498554033062737 H
atom 0.1161596979266944 10.4947490375007479 0.2921799262596012 H
atom 0.0666975004632161 12.0066084378768867 2.9544547906314378 H
atom 5.2870892712873809 14.8812050898626254 2.0925838051947507 H
atom 1.0650221313255215 16.7754479703618991 0.7311853720251048 H
atom 4.4421942919984243 9.9048751580470284 4.1690065372052221 H
atom 4.3289715278036471 12.5706584675796940 1.6446088050587973 H
atom 1.1672221334237516 14.2317987698970683 3.1731214134607795 H
atom 3.0172363794520973 16.8605925897250479 2.9961645413971527 H
atom 2.4566101265502804 9.8954028852900340 1.9286817358638089 H
atom 2.2815212501756035 12.3771383476225534 4.4275889999261873 H
atom 3.0852621148102890 14.3144562561899455 0.4832499555539002 H
atom 0.1176043518164483 17.3207651254503148 9.7571288701278771 C
atom 4.9614388840289028 9.5111672847954196 5.0553731374978454 C
atom 4.7288125653710980 12.7776196896612877 7.4898160290877636 C
atom 0.2113692685657125 14.0876508872710762 7.2739117114981715 C
atom 1.1868440258164528 17.6171573026119113 8.7500516475672079 C
atom 3.9366289318544432 9.2094833351438847 6.1094571750866589 C
atom 3.7088234179349744 13.0006679001122976 8.5608178633269194 C
atom 1.2315912539913938 13.7599843346939306 6.2389468479155141 C
atom 1.0829136141140119 9.5673659086385907 7.8624097301045071 O
atom 3.8915483220126363 17.1774639264227140 6.8346416771081708 O
atom 3.7127287460325507 13.9938277610244235 9.2791230611115072 O
atom 1.2105617501163681 12.7250194711112741 5.5827670591628333 O
atom 2.0860114237622440 16.6542663803422499 8.6335268173387085 O
atom 3.0944645071702963 10.2165605577045504 6.2812281101101428 O
atom 2.7880285458227942 12.0911709622661423 8.6598269266137127 O
atom 2.1050353458635818 14.6861503558834006 6.1121030613316298 O
atom 4.9821191309195925 16.3654414378412731 9.4985199485444607 H
atom -0.1544245048014577 10.2760400804914873 5.3068011238124111 H
atom -0.0085832549786843 11.9579241309694293 7.7979030234521280 H
atom 5.1433753140055636 14.8361191882483290 7.0641987677218099 H
atom 0.9112432227678365 17.0080742890197030 5.6356847840622439 H
atom 4.0069142540658396 9.6481712745599904 9.0231071080481637 H
atom 4.1818655443557784 12.5588048972022275 6.5549185832898909 H
atom 0.7873787040957880 14.4012942427498771 8.1439320265693684 H
atom 2.6859820051267724 16.8448760254299224 7.8518791028495247 H
atom 2.3727566996746758 9.9756790739624375 6.9064510297966697 H
atom 2.1479939549369229 12.2735783599944082 9.3852760172597236 H
atom 2.7292528287770197 14.5491463661188281 5.3363821320311819 H
atom -0.1614149362606697 17.0939068388065429 14.6328092891847952 C
atom 4.5154112561692479 9.3543720659184668 9.9270476847798808 C
atom 4.4700343070680040 12.7438581811754634 12.3585113084579614 C
atom 0.0796464677461017 13.9374174662816515 12.2252644771612466 C
atom 0.9279493485185804 17.4259655625503420 13.6493333719292647 C
atom 3.5369254803717314 9.1276196147244963 11.0071513677017325 C
atom 3.4849020650231219 12.9294935601225927 13.4300952376710097 C
atom 1.0505808842004725 13.6705004618890289 11.1371702177795822 C
atom 0.8348776539654983 9.5340806596768637 12.7792601391331679 O
atom 3.6738977195013640 17.0954943705535278 11.8455798010079807 O
atom 3.5677712222155975 13.8405780297157328 14.2364555296882145 O
atom 1.0346579407782401 12.6156385337441925 10.5133231589404410 O
atom 1.8161786527276635 16.4699010267927051 13.5492130364195802 O
atom 2.6966343431490238 10.1149056081727853 11.1112934503037710 O
atom 2.5494966090662148 12.0055500833788980 13.4187708445425358 O
atom 1.9272106231116053 14.6013232428696469 10.9359241099871287 O
atom 4.7958751981361196 16.3958162119335320 14.2770963424109638 H
atom -0.2168197942303517 10.3055681709853584 10.2906982902886242 H
atom -0.3750967094044864 11.9182358372948727 12.7607389354183756 H
atom 4.7783118052420059 14.6840336468874231 11.5816791069346241 H
atom 0.6460142937995048 17.0934834970073517 10.6888512524317836 H
atom 3.7601006933625021 9.6755297383329850 13.9977436726669779 H
atom 3.9409205593437857 12.4833971392205676 11.4585395610936995 H
atom 0.5990233540888289 14.2466157328689018 13.1171927303408005 H
atom 2.4821693876766955 16.6944309335409002 12.7885207409905650 H
atom 2.0365492262987659 9.9491143760629352 11.8591796563071306 H
atom 1.8948726014255759 12.1380031488021203 14.1237936933773724 H
atom 2.6161306082595512 14.3854189252800548 10.2546084019072268 H
atom 5.7960254905074544 8.3041139798398813 4.6952627277848720 C
atom 10.4423075721254328 0.5509423092452252 0.1420946748998952 C
atom 10.4883989105128190 3.7039073612918192 2.8321301777539625 C
atom 5.7920037434150995 5.0180873085337216 2.3195479272883190 C
atom 6.8039493966665132 8.6177044175937834 3.6494656059153061 C
atom 9.4112057024604336 0.2936722061017646 1.1529608065633608 C
atom 9.3616217942296860 4.0427078031878008 3.7533536834378274 C
atom 6.8391926014495210 4.7582295286426799 1.2853133283092744 C
atom 6.6772114455324267 0.7094996883613267 3.0802190556273756 O
atom 9.4389875080326231 8.3006214099965199 1.7211331270358337 O
atom 9.3261140008221819 5.1056132255173461 4.4007597134021861 O
atom 6.7902437059175655 3.8221149751721204 0.5120266143541992 O
atom 7.6398906969024898 7.6333288990149626 3.4049433827001132 O
atom 8.5683850979875338 1.3246259061370460 1.2329247806588586 O
atom 8.4478385206666786 3.1351264869830029 3.8210142864942132 O
atom 7.7692745342815472 5.6573810512710008 1.2047937181023325 O
atom 10.4767570110349499 7.4094340049655596 4.3876678682620724 H
atom 5.4761378434905224 1.5451658164278261 0.4446888094197002 H
atom 5.4791541538097892 2.9870944433493940 2.9586141238085317 H
atom 10.6563068516186465 5.7390860185156898 2.1485337157308964 H
atom 6.5688888626633348 8.0773615286459108 0.7158127729418262 H
atom 9.4878305681147790 0.6757805140554227 4.0856505369436711 H
atom 10.0091230760988648 3.2560276130606840 1.9199556030278961 H
atom 6.3622451469311398 5.3835318249165560 3.1874991593159487 H
atom 8.3235877026028646 7.8938957764196562 2.6722868979228052 H
atom 7.8634151668775969 1.2026452584714167 1.9366564370061496 H
atom 7.7352484371712258 3.2943665047503070 4.5358163308904604 H
atom 8.3832259785645000 5.4715340014242742 0.4154147240053468 H
atom 5.4547061649062618 8.1986489541153578 9.6977551827907380 C
atom 10.1024699428214237 0.5046181328682818 4.9516596884674922 C
atom 10.0144148485888049 3.7769655722879443 7.5326793862562855 C
atom 5.6394948602550006 4.8389343508867695 7.3514890962007069 C
atom 6.4730019451456045 8.4947236249275555 8.6593506670896208 C
atom 9.0657058765921867 0.1616742331126768 6.0178036755608817 C
atom 9.0564981924596903 3.9828684398715479 8.6552760022723660 C
atom 6.6635057547834800 4.5841672561310514 6.2688982802085809 C
atom 6.3337224932103577 0.5893076597972972 8.0280422090396613 O
atom 9.1544489012484966 8.1995485554386480 6.7153122074600011 O
atom 9.0713151554315239 4.8876345331116964 9.4722198392694530 O
atom 6.6633470016087815 3.5836200808229703 5.5646691972472357 O
atom 7.3190505308373677 7.4845242565978234 8.4950411312769525 O
atom 8.1457312292159472 1.1075044808747676 6.0465909179061601 O
atom 8.1099059294590479 3.0771709946731693 8.6417290646981169 O
atom 7.5407757981658952 5.5565727853376261 6.1622161468113710 O
atom 10.4949077906754464 7.3704336417146950 9.2757892444428443 H
atom 5.3086532441838905 1.4350810733195840 5.3977137751895974 H
atom 5.0696027137232971 2.7979929534213532 7.6878341556613554 H
atom 10.3128708170214765 5.7509395888931572 6.7168997392069834 H
atom 6.3574296339652934 7.8414013933194422 5.4902668760386648 H
atom 9.2999197269969756 0.8551557261469521 9.0910534668190053 H
atom 9.5200574625785208 3.3606247880968581 6.6551447542493722 H
atom 6.1877224902128862 4.9720065536913154 8.2666482306111000 H
atom 8.0002074857425711 7.6859820352898760 7.7908649660405054 H
atom 7.4646801097605433 0.8985376770194884 6.7534129693875773 H
atom 7.4890751809391718 3.1281095966613410 9.4450201286711568 H
atom 8.2414064758340810 5.3829497299426619 5.4472976834203450 H
atom 5.2681606010908624 8.2499262295428863 14.5963489767291037 C
atom 9.9060922657197139 0.6193860946301217 9.9707048078218925 C
atom 10.0480176038999307 3.7169515804795235 12.6306671676156270 C
atom 5.2159943078850244 4.9381286262107134 12.1338226485350678 C
atom 6.2586851593029946 8.5573782112084569 13.5213783131224918 C
atom 8.9003379862815315 0.3707521641902449 11.0318639452297589 C
atom 8.9866467955924687 4.0338546678121290 13.6323467822365529 C
atom 6.2738725463491258 4.5729275313624163 11.1363235341811926 C
atom 6.1819544581988506 0.8108582986336562 13.0094522424456009 O
atom 9.1215869940859644 8.0330693929051051 11.5821024487338207 O
atom 8.9316652794219813 5.0862823806115909 14.2538125434552221 O
atom 6.3139312640979783 3.5336816238353976 10.5187736846050814 O
atom 7.1251599868059312 7.5932172635412103 13.3471202450287354 O
atom 7.9888301748891983 1.2834664997102849 11.0918726452656884 O
atom 8.0602161857785024 3.1334595786486714 13.6987056092604149 O
atom 7.1536826405267124 5.5382632525224293 10.9855080182178746 O
atom 10.1220495010342049 7.4222400943912170 14.1912637926241185 H
atom 5.2023415348609765 1.3829253636587258 10.4833188089224763 H
atom 4.9226978176300458 2.9122581967966488 12.8418618076891704 H
atom 10.2323829574494756 5.6765372676845880 11.9124148875559364 H
atom 5.9221813466676476 7.9434796846504030 10.6413311354721145 H
atom 9.1561951861701782 0.8135465190585462 14.0425120679318791 H
atom 9.5494267998976916 3.3750184092694973 11.7541908901067007 H
atom 5.7523683674654418 5.2783419713615087 13.0206708001242752 H
atom 7.7798580792614285 7.8003372387975007 12.6232057684048087 H
atom 7.3753020724054412 1.2010312678619846 11.8833630565861608 H
atom 7.3532882988472865 3.3206824893427833 14.4012942427498771 H
atom 7.8936841055200588 5.2469723440411391 10.3891252586015259 H
atom 5.8311628598406626 17.2680061537256044 4.8920584549132871 C
atom 10.4655913710811745 9.5758856623473978 -0.0297609284834281 C
atom 10.4138378361295523 12.8955732984620717 2.6482781261359429 C
atom 5.8005234971239048 13.9602250057132977 2.3446097618006800 C
atom 6.8287148919194376 17.5693196793028434 3.8063719520145458 C
atom 9.4112057024604336 9.2526112809369021 0.9554506901488035 C
atom 9.3994579675327650 13.2363634468142717 3.6903339648551206 C
atom 6.8414151458952954 13.7061670084712297 1.2909543577835516 C
atom 6.8539037289715559 9.6810331817225244 3.0418854557102430 O
atom 9.5302705834841053 17.1300496449128410 1.8509297226691059 O
atom 9.4222125892395105 14.2961996410996495 4.3025497077613721 O
atom 6.8598305141602900 12.6823677848423504 0.6046379247006562 O
atom 7.7147692776351544 16.6002373832199517 3.6664151532005871 O
atom 8.5138798413411418 10.2120096333632020 1.0224709887339061 O
atom 8.5687026043369290 12.2490245356410838 3.8449013475138067 O
atom 7.7296920760567875 14.6757784818031158 1.2047408003774331 O
atom 10.7578030479757150 16.3422105566104285 4.4049296301242595 H
atom 5.5868946417049878 10.4474935091655752 0.3495268647330916 H
atom 5.4155470484806987 11.8817226071142787 2.8480954553561140 H
atom 10.9314261033706774 14.8936936729388858 1.9991787289748024 H
atom 6.5420066584144347 16.9739952741844817 0.7294655459658740 H
atom 9.6473245909615990 9.7958117270293439 4.0122166101007606 H
atom 9.8579371360612509 12.5842054051539431 1.7128409195440961 H
atom 6.3707119829150454 14.2269832569312218 3.2499844088771721 H
atom 8.3345416716570426 16.8143954158878621 2.9464906730340767 H
atom 7.9381349944355630 10.0353702676489718 1.8223488594509347 H
atom 7.9104590243131723 12.3952362095381527 4.5846964333800448 H
atom 8.3640697621509119 14.4744265385608610 0.4828266137547049 H
atom 5.5402741260686073 17.2269419992036639 9.8315311913364454 C
atom 10.1175514944177554 9.4524815278819734 4.9428171366368012 C
atom 10.2714891561501389 12.8699082018858562 7.5750135661758131 C
atom 5.6952701422989787 13.9240292818821008 7.3449802160380795 C
atom 6.5510555893722335 17.4553348998695128 8.7678320031334085 C
atom 9.1429128372204254 9.2013869232342742 6.0194970427576626 C
atom 9.2829860550291645 13.0590361506763486 8.6610440342864017 C
atom 6.7134071693636237 13.7302445733004621 6.2862552939755876 C
atom 6.4862313763704567 9.5157182091367680 7.9782466299093162 O
atom 9.2471078375473628 17.0565469250275612 6.7854281929517200 O
atom 9.2344605012964056 14.0593928221747912 9.3369092167016632 O
atom 6.7892911868693773 12.7265540851333565 5.6116601369579113 O
atom 7.4527207039332772 16.4875755469091096 8.6863387067883178 O
atom 8.3231643608036698 10.2008969111343273 6.2193143719778341 O
atom 8.5237225381724322 11.9996762159150645 8.8495369703780966 O
atom 7.5335789875795749 14.7434073342245622 6.1572418806708260 O
atom 10.4994587150167966 16.3877727177488204 9.4845496691710167 H
atom 5.5600653551809867 10.3594384149329581 5.4075035542959879 H
atom 5.2421092051228833 11.8746316319777598 7.7321262914021602 H
atom 10.5552339970607747 15.0347723275207112 7.0061480235071576 H
atom 6.3514499310516594 16.9268984990240092 5.7869765595496565 H
atom 9.6046199869677746 9.7379197359893901 9.0217841649256769 H
atom 9.7492441291178640 12.6029382797683347 6.6513346780566156 H
atom 6.2359305375962490 14.1372877132267210 8.2425177480569687 H
atom 8.1414978112239940 16.6412486200169951 7.9756007436643452 H
atom 7.7322850445768596 9.9812883528017746 6.9831288131759148 H
atom 7.7766300980425651 12.1401727755229967 9.4998428916669457 H
atom 8.3266040129221306 14.5957139640303097 5.5725010205323482 H
atom 5.3404038791235369 17.2618676976372711 14.6483141825803234 C
atom 10.0898226065704648 9.4104648543118419 9.9150882789526129 C
atom 9.9666830607295385 12.8217001545024960 12.4441851050701064 C
atom 5.3745358116836561 13.8948186977376267 12.0941872725854100 C
atom 6.4032034660032835 17.6418169624150352 13.6674312338448622 C
atom 9.0844387512065783 9.0729026871785070 10.9519052629067506 C
atom 8.9424604953014626 13.0693551070317344 13.5292630541325050 C
atom 6.4509881715874497 13.6256791488992270 11.1303438312675596 C
atom 6.2969446744052675 9.5785315485923679 12.8456189661570281 O
atom 9.1202640509634794 17.2896495032094606 11.8427222438634150 O
atom 9.0237950384718530 13.9628708919582678 14.3433493339850244 O
atom 6.4767061858885633 12.5805540821358850 10.4951194615750438 O
atom 7.3542408178954757 16.7630123050105340 13.5928701594615955 O
atom 8.2411948049344836 10.0472238380264400 11.1325663757133348 O
atom 7.9981966121963932 12.1461524784366297 13.5035979575562894 O
atom 7.3459856528111676 14.5734356018476578 11.0534014592638172 O
atom 10.0632579086709608 16.3829042870580750 14.1632173984274328 H
atom 5.1126459911564774 10.2398972743851910 10.2144438487085747 H
atom 5.0320311290447162 11.8065265200322180 12.5038233810317401 H
atom 10.4198704567680842 14.8372304604712149 11.9005083994535710 H
atom 6.0539464816671789 16.9023446746706831 10.7526700286604733 H
atom 9.2648881931135652 9.7836406503024786 13.8356566813000867 H
atom 9.4678805858277020 12.4831854683209702 11.5292905592842096 H
atom 5.8078790608849236 14.3359408524991068 13.0287672120338858 H
atom 8.0502147357725136 17.0077567826703060 12.9046751471447685 H
atom 7.5480255264771143 9.8641814275993802 11.8471144150300649 H
atom 7.4085344036422702 12.3261256608195229 14.3137154080413538 H
atom 8.0805365921398753 14.3443547707581125 10.3862677014569584 H
