#=======================================================
# FHI-aims file: ../Intermediate_data/Reference_data/AIMS_PBE0_MBD/succinic_alpha_npt_fep_0.geometry
# Created using the Atomic Simulation Environment (ASE)
# Thu Aug 20 17:53:05 2020
#=======================================================
lattice_vector 10.9724426319402095 0.0000000000000000 0.0000000000000000 
lattice_vector -0.9030674342708778 17.1720716102554647 0.0000000000000000 
lattice_vector -3.4937499086263029 -3.0635658476015308 15.9048243932268480 
atom 1.3851902422844207 1.2900177140528319 2.6017105282244621 O
atom 9.7640081743647986 4.8584292407397127 2.7980141205113132 O
atom 2.7015980257445880 1.2667603739595414 4.3802964291835851 O
atom 8.4501139828373528 5.1075182636137235 1.0242278572005665 O
atom 1.6077674849838282 1.4112839724323194 3.8604803257241929 C
atom 9.5242908805704722 4.8033260138019562 1.5023024592593044 C
atom 0.3777478874219469 1.7660126495230231 4.6435621105581486 C
atom -0.2501526691444900 4.3638813509197876 0.6887612319732479 C
atom 2.1630543394432946 0.9746227818798596 2.0451324812774501 H
atom 8.9632042434620303 5.1692732485713346 3.3074742252078906 H
atom -0.3918187104726999 1.0742351072305085 4.3472757688463526 H
atom 0.6113267251279417 5.0070751299821543 0.8647550014437051 H
atom 0.0221619431878728 2.7150550031865079 4.2846741002903510 H
atom -0.0504940930990168 3.3638580610882118 1.1095894392358043 H
atom 3.6820100067284431 3.6828461067818541 2.3939026225444797 O
atom 7.5894601050733526 2.5483112520284679 2.9700390606143143 O
atom 9.2305975073787483 1.4124746212425561 1.3618217749688410 O
atom 1.9109331309325466 4.8130046656860586 3.9462282071511967 O
atom 3.9293950788606944 4.4394954880285553 1.3600490311847111 C
atom 7.2935971051607522 1.7315420435235473 3.9479268661204672 C
atom 4.9360542513946566 3.7944495885947092 0.4656336449348866 C
atom 6.2881074143470661 2.3132824686602294 4.8524072036461590 C
atom 3.0134263032593398 4.1302919296688136 3.0120345670944855 H
atom 8.2095500054446369 2.0897632904576122 2.3267394461021489 H
atom 9.6873833087104533 7.2815847816085855 0.0507798488134736 H
atom 0.8345971900235314 15.9408296132484057 5.3769171093041290 H
atom 5.7258565872908376 3.4041284497366626 1.1454253225376847 H
atom 5.5464125821569388 2.7697137212351084 4.1815057038264625 H
atom 6.4635825901135089 5.9868468064947260 2.4670455019004445 O
atom 4.1726631519957706 9.2099595946679784 2.7741641018991485 O
atom 7.7432919313559365 5.5666800707934136 4.2350002319272759 O
atom 2.9215240904265354 9.3279132034687624 0.9817719665137700 O
atom 6.6835615725203565 5.9418667403302283 3.7528297979613234 C
atom 4.0169104122993380 9.1598994269131371 1.4945605961065207 C
atom 5.5589011652331992 6.2710149892045575 4.6177700114421762 C
atom 5.2505389986993585 8.7620639711193746 0.7387208560507807 C
atom 7.2832781488053673 5.7281849671864116 1.9508436790516817 H
atom 3.3256937978907573 9.3227272664286200 3.3261012643724830 H
atom 4.6040166947408192 5.8586800767883567 4.2659623927659203 H
atom 6.0537348107675806 9.5042879805584946 0.9559534085353479 H
atom 5.4325865558983084 7.3451389692127771 4.5157128872011745 H
atom 5.5412266451167964 7.8167946512412163 1.2030368496356723 H
atom 8.6565460276699504 7.9649113632346653 2.2489239316375671 O
atom 1.7185031161083331 6.6379464936570649 2.6736151328177802 O
atom 3.4509870951350901 5.5662567289942180 1.1473039017716136 O
atom 7.1762785090587604 9.1986881192644034 3.8420014561893185 O
atom 9.1516971795537287 8.8228135193038959 1.3929585642996538 C
atom 1.4623972029126593 5.9469997596454718 3.7404893845147811 C
atom 10.1906837902287393 8.1671629078002095 0.5294259623011252 C
atom 0.5652935962379451 6.6655166283296570 4.7185994444655117 C
atom 8.0182524299332698 8.4370433047871991 2.8588853794631039 H
atom 2.4353583682306774 6.1800494201024714 2.0876571650066156 H
atom 3.8630468353818137 11.6263416667497275 -0.0155260604854868 H
atom 6.7812476926846665 3.1366240585976564 5.3147917002722220 H
atom -0.0113455602184335 7.7105358596432021 1.2053228953513266 H
atom -0.1836827148983413 7.1731034455647960 4.1214440860656323 H
atom 7.4753694901902250 3.3464640049137757 7.7529229572876286 O
atom 4.8831365264952469 6.3553658426942166 8.1629294898082563 O
atom -2.3103667020182717 2.8881594648774578 9.5937189356384973 O
atom 3.5597330198033768 6.6164089796230048 6.4284981385052005 O
atom 7.6419544881735666 3.3101571538602905 9.0281872096385065 C
atom 4.6607603711504568 6.3733578691600163 6.8854956107365037 C
atom 6.4572853808504798 3.8331430290411577 9.7854398529490609 C
atom 5.8279348786217984 5.9807083504063954 6.0517768549463025 C
atom 8.2628910721432405 3.0065364154774374 7.2164959799823123 H
atom 4.1288896099589785 6.7844227561786310 8.6805706747742821 H
atom 5.6095963456868345 3.2053853503319489 9.5445583692069462 H
atom 6.7015006812612556 6.5379319935971809 6.4227830242160646 H
atom 6.2221190113975027 4.8134121321677847 9.4002517334062556 H
atom 6.0688692800888120 4.9282435951995032 6.2636065077186398 H
atom -1.2510173508019669 5.7083408203491333 7.6857703643902777 O
atom 2.4151702561815527 4.2308885247025909 8.0349215132765828 O
atom 4.2768740276401784 3.1173725902792508 6.6106938653338689 O
atom 7.8159479676428258 6.6537159756770894 9.1030128726462713 O
atom -0.9170535889617918 6.4677101726556643 6.6962089087713146 C
atom 2.2207505349011210 3.5428258066980156 9.1470404197625790 C
atom 0.0522245027032275 5.7749642359974898 5.8097840989813010 C
atom 1.1724292375538534 4.0931119361544885 9.9920835686812559 C
atom -1.9803294353656327 6.1046945798457122 8.2976580174021546 H
atom 3.1498958240024284 3.8172624197988450 7.4485402036662238 H
atom 4.6434880257432898 9.1905917073547929 5.4581458170247226 H
atom 7.4503394063128043 0.7287564484522220 10.4798791568040137 H
atom 0.8561452876025711 5.3065365351879148 6.4095535929912115 H
atom 0.3203056970436375 4.3973253530562149 9.3863872894826113 H
atom -2.9866340591427689 0.7681378193223627 13.0358052694455075 O
atom 5.6676470899014868 4.2625439077374185 13.3631543156732562 O
atom -1.7357013767006411 0.4417095415078635 14.8537937083647318 O
atom 4.4176404676450982 4.5399492052051045 11.5354819330974401 O
atom -2.8008822612008610 0.7625549993454750 14.3300669850352715 C
atom 5.4866155530206058 4.2563419503792073 12.0875725569729831 C
atom 6.9799008319570506 1.2887318133377763 15.0936697553337549 C
atom 6.7035644725323325 3.8530877195557451 11.3024322726404396 C
atom -2.1635676413748186 0.4651150512308724 12.5549419032845702 H
atom 4.8178201786519050 4.4420990400936056 13.8797371461412951 H
atom 6.1066525356669903 0.6954606159455133 14.8526824361418424 H
atom 7.4607112803930873 4.5968357594719693 11.5658037894648036 H
atom 6.7654252929397432 2.3049003010361626 14.7036661228251067 H
atom 7.0484822034266852 2.9134700126968451 11.7475761744942755 H
atom -0.7430759848100021 2.9438447867891062 12.8672623156408878 O
atom 3.3105540367970359 1.7602657845989473 13.4110977744321218 O
atom 5.0348093096019353 0.6437070809938905 11.9300364899474403 O
atom -2.3012331027006336 4.2107057044259566 14.7131913133069983 O
atom -0.3083621665338407 3.7858822089334949 11.9398262690538299 C
atom 2.9907404745949631 1.0118874437540242 14.4210325541373567 C
atom 0.6948891045165997 3.1464350047940068 11.0503851489445513 C
atom 2.0719088500765515 1.6967909735821052 15.3629680573468512 C
atom -1.3801683501914666 3.4409327274042019 13.4731702657391281 H
atom 3.9947537608839552 1.2921291312763183 12.8149266857153705 H
atom 5.3818913754446731 6.8308316009154133 10.5699980423077093 H
atom -2.6420814605502221 -1.7002465010180365 15.8060481679296103 H
atom 1.4835907517348732 2.7839644645505195 11.6679349985206624 H
atom 1.3310342426223645 2.1598686924043502 14.7472174104173206 H
atom 0.9607212955487847 10.2931325056339968 2.4173769253098580 O
atom 9.6231411906825688 13.3364308645990555 2.8304315187846916 O
atom 2.1378866694811354 9.5456167237049332 4.1508663411097038 O
atom 8.1881183268603746 13.2655740309587458 1.1080548252137215 O
atom 1.1403346374023615 10.0566431930585356 3.6868625621017190 C
atom 9.3426243309907999 13.2254094777600919 1.5506851351348347 C
atom -0.0164891630786561 10.3930411702440839 4.5146862833381265 C
atom -0.4137901498509349 13.1111071919773661 0.6565184621920376 C
atom 1.7758976805342328 10.0148381903880015 1.9110177992923858 H
atom 8.8040277269646054 13.5744018734717002 3.3716581337383844 H
atom -0.8675490573183939 9.7579226360013678 4.1919887051290354 H
atom 0.1927581047185901 13.9756240636590245 0.7540617044991197 H
atom -0.3287566577100733 11.4151999444010830 4.2926805520676323 H
atom 0.1411580311691756 12.2488657824663836 1.0480884593577102 H
atom 3.4170086239771789 12.2253173948861456 2.5648586246045131 O
atom 7.2971955104539115 11.2600451749960140 3.0858283344667123 O
atom 8.7634398319667586 9.9720806686692782 1.2587592139547505 O
atom 1.7158572298633625 13.4435892575203582 4.1538509007940307 O
atom 3.6412421914659383 12.9816175191485126 1.5321163054676319 C
atom 6.8043727384657080 10.3537233006438214 3.8953848570678433 C
atom 4.5016208970604623 12.3653906126948847 0.4775613001272136 C
atom 5.8569867095915749 10.9408454584027730 4.8806970193773838 C
atom 2.7771274944935156 12.6984547732117701 3.1602147803578129 H
atom 7.8788671425482244 10.8355921035778469 2.4053593099852022 H
atom 9.2370005520915779 15.9803062360233668 0.0513196096074476 H
atom 1.2120011122336323 7.4574303814493241 5.1241397210046289 H
atom 5.2860520838793530 11.7531854533336126 0.9516194468660862 H
atom 5.0733281215562149 11.4695993655976753 4.3045182471276302 H
atom 1.6257171772697077 7.4693897872765911 7.8436239377652175 O
atom -0.7176860604032654 10.8040531395377979 8.1164677273465742 O
atom 2.9496286941206118 7.2589889130765375 9.5970527523071603 O
atom 8.9419313180524682 11.0426062433843377 6.3629859950797316 O
atom 1.8523585012413899 7.4870643073929948 9.1149193607486367 C
atom -0.9538843254917810 10.7292803942549337 6.8310432718150107 C
atom 0.6200475661913645 7.6578298056433898 9.9547765726271713 C
atom 0.1807775318013637 10.2394210148610956 6.0193912073078639 C
atom 2.4393166140531535 7.1683937680487491 7.3210084866586458 H
atom -1.5473354431487021 11.0399074394144687 8.6289229752724594 H
atom 0.0292000005994943 6.7293354045583449 9.8585192310351442 H
atom 1.0604077057142929 10.8015660064675263 6.3455760635878260 H
atom 0.0327190293053051 8.4689526929015440 9.4688331048758911 H
atom 0.3296562590333632 9.2035036322302499 6.2900124524434453 H
atom 4.0600701087272961 9.7593514145736506 7.8931020105461656 O
atom 7.9455963936463805 8.6517305147041039 8.0947185424129167 O
atom -1.3786284443968937 7.5853854402560978 6.4923169147338893 O
atom 2.2871146536974711 11.0320226984044556 9.5054521705062829 O
atom 4.3704219817173557 10.5371890528700760 6.8876123197324803 C
atom 7.5444800389088540 7.8505561597270397 9.0313622731324710 C
atom 5.3127808267260450 9.9322336218200231 5.9225517707419435 C
atom 6.6240291320085198 8.5193303670057805 10.0196007856289473 C
atom 3.3761561403548348 10.1878262330841700 8.5367402984976870 H
atom 8.6181806771178788 8.2475449319224126 7.4408671335558090 H
atom -0.9953665300404283 13.5332848012248590 5.3571258801917505 H
atom 1.6221399390665077 5.0120811467576392 10.3918240625713967 H
atom 6.0993498896308713 9.4111527847355347 6.4964974150009427 H
atom 5.8734970397601902 9.0562865215600930 9.4824329601750392 H
atom 2.4916469522061795 5.0658243881654785 13.0949672858830475 O
atom -0.0784981531157845 8.5280088738892843 13.4037951283960020 O
atom 3.7887556413955323 4.8140206860041275 14.9082989650111220 O
atom -1.3733472554519326 8.4946707072026566 11.5837958159306016 O
atom 2.7177379318389079 5.1198692606052463 14.3983837678804090 C
atom -0.2601858697854181 8.3443314507634323 12.1398552691735997 C
atom 1.4950686062655552 5.4881501670426891 15.1802960709940891 C
atom 0.9518522848556437 7.9709439838731981 11.3814384359152587 C
atom 3.3102735728550696 4.8292609907751576 12.5242496228429125 H
atom -0.9014322765714861 8.6604090215876077 13.9241351173318986 H
atom 0.7892096573773076 4.6838007485716604 15.0027571039565686 H
atom 1.6238174309458189 8.8568396164142165 11.4358907748367518 H
atom 1.0740498951933606 6.3814013633447262 14.8089723953749299 H
atom 1.4126968756871336 7.1320392910428545 11.8782300372709173 H
atom 4.7503447876326685 7.5324677153566872 13.0100872551443931 O
atom -2.3676607227668627 6.0865967179301146 13.4688839300222778 O
atom -0.7265444875514266 4.9393510256558901 11.8993442095057826 O
atom 2.9553543919547280 8.4891143460882184 14.5287730420325563 O
atom 5.1219753860562429 8.2742154652717144 12.0049150706801058 C
atom -2.7241674354141860 5.3365938029307793 14.4942177676732413 C
atom 6.0368540565246684 7.5806757627400501 11.0199045394024910 C
atom -3.7015578143062853 6.0099718522757692 15.3842939004813140 C
atom 3.9799315061396303 7.9362299563391838 13.5128056416887858 H
atom -1.6409627738132277 5.6675412544516881 12.9248897180563436 H
atom -0.3034408181181956 11.0401191103140661 10.6626569786065755 H
atom 2.6458333272455903 2.4852597828108212 15.8560025002346521 H
atom 6.8254339929756735 7.0122864795954900 11.5139444190633800 H
atom 6.4769707745130596 6.4690331157781484 14.7590709807947871 H
atom 6.2629185772949478 14.0887092417690631 2.4958592031081728 O
atom 4.7756606272245454 0.4834192922735782 2.8202766073764947 O
atom 7.5539523116658485 14.0673304809097033 4.3131015021063144 O
atom 3.3188303689713039 0.4687293318415021 1.1134683084709311 O
atom 6.5007837507177948 14.2511666572102520 3.7776111685317173 C
atom 4.4313461583940450 0.2862637246158472 1.5836211271122274 C
atom 5.2727961937920513 14.6994327048331517 4.4753948726003143 C
atom 5.6056275163193785 -0.0739419370019453 0.7327623202271072 C
atom 7.0638283436475140 13.7777646902601330 1.9878067098939192 H
atom 4.0020669904650532 0.7724876563090941 3.3658160169094899 H
atom 4.3957166542192727 14.1015682489196195 4.1608677911156926 H
atom 6.4365416326899112 0.5979279571834111 0.9247478261621660 H
atom 5.1330193152427492 15.7519662530824132 4.2027680456910446 H
atom 5.9711302421996013 -1.0305356500085761 1.1299415962321173 H
atom 8.3053310875125685 16.6185469160351467 2.3691953367889456 O
atom 1.6551288487687998 15.2968738189474891 2.9579738193372487 O
atom 3.2364903890278223 14.1222590793552900 1.3974671544610835 O
atom 7.7409635514603625 0.5961657969442608 4.0506084195152825 O
atom 9.6436203502186419 0.2620961996542868 1.4656304759040133 C
atom 1.2598493190876785 14.5569781894039423 3.9411163549259136 C
atom 9.7605685222463379 16.8132312259400756 0.5024643814648758 C
atom 0.2567409258944665 15.1723584122591788 4.8590219192585851 C
atom 8.6528417869269934 -0.0841550579075314 3.0389643972957958 H
atom 2.2604229532582090 14.7649977659835212 2.3346771048370605 H
atom 4.4771358657495046 2.9562063673256085 -0.0104300835776737 H
atom 6.4158508022542415 11.7565721877271745 5.3730541153864726 H
atom -0.4635010606214404 16.3780358563673296 1.1706776608596832 H
atom -0.5237055562394989 15.7182047445965889 4.3248439452614935 H
atom 7.0243517208725557 11.9061176782929081 7.7796993260867300 O
atom 4.5943168757667578 14.9147549274488505 8.1011215871257445 O
atom -2.7637816442738843 11.4382191547323266 9.5569411168334071 O
atom 3.1776035447597595 15.2517349996082920 6.3930961805474960 O
atom 7.1870737249382399 11.8534116242930949 9.0608903636263403 C
atom 4.3034281419947025 14.9325352830150511 6.8042669030159093 C
atom 5.9941494525308450 12.3227389264259610 9.8438610212380073 C
atom 5.4386191765368412 14.5611057719460959 5.9438776138764062 C
atom 7.8501857356527438 11.5655392008403055 7.2982009472270013 H
atom 3.7377641216824613 15.1541547148937799 8.6017761823990604 H
atom 5.1230549076441907 11.7639277514881933 9.5348744255503544 H
atom 6.2995905606502385 15.1484925183295438 6.2775238693671849 H
atom 5.8709040712401199 13.3717799048318593 9.5121198038436088 H
atom 5.6906663002327305 13.5410637067850708 6.2320146259536919 H
atom -1.5880767995487577 14.1349593333311496 7.8095978406548960 O
atom 1.9767786560248823 12.7060220078723844 8.0865692127784072 O
atom 3.8972793116192426 11.6509484088279525 6.7174289164559786 O
atom 7.5115122962965213 15.2289274601766476 9.4672984908538069 O
atom -1.2384335158208875 14.8927411538906966 6.7974934342287847 C
atom 1.7697592244459013 12.0965156524809849 9.2158863798567126 C
atom -0.3423247623742819 14.2350796688408323 5.8395238603747694 C
atom 0.8208544568671547 12.7897378486632523 10.1300400774940158 C
atom -2.3206750748286766 14.4914131282535710 8.3762937566026761 H
atom 2.7177326400664183 12.2262699139343347 7.5816282817882392 H
atom 5.2624560703467056 0.5046340081857517 5.3768112738543303 H
atom 7.1937413582755658 9.3165358926153896 10.5115239562938623 H
atom 0.4057096132587950 13.6402315232465661 6.3631447482544292 H
atom 0.0901559279111245 13.2006969002320673 9.4395696030065182 H
atom -3.2453805668109230 9.5302705834841053 13.0129977300138613 O
atom 5.2744207679464621 12.9391245860542856 13.4184004204682399 O
atom -2.0945205939260694 8.9748990606648000 14.8156929464371547 O
atom 3.9003220808009584 12.8751999743757981 11.6690991884684507 O
atom -3.1230506621609573 9.4161799686009786 14.3009622363405953 C
atom 5.0202728105720675 12.7303641613261131 12.1332405535611745 C
atom 6.6605423621891129 9.8821734540651818 15.1293892196408564 C
atom 6.2267228534637509 12.3054348303838541 11.3354000152527732 C
atom -2.4600550704412325 9.1493158819332550 12.5514493334412105 H
atom 4.4007067956772872 13.0877175575718283 13.8964062294846098 H
atom 5.8911715598765939 9.1316942795417511 15.0232362634926417 H
atom 7.1318805378681551 12.8657806193437025 11.5775515243924705 H
atom 6.3134550045738838 10.7510824969134902 14.6177277375884636 H
atom 6.4550099186798047 11.2897320186645818 11.6817465247194079 H
atom -1.1430757755521508 11.8094899126265851 13.0347998326724195 O
atom 2.9023308316055192 10.4173833236978108 13.4440655170444536 O
atom 4.6531137599024923 9.3823655423902554 11.8314507684598400 O
atom -2.9020186170286131 12.7952942097776905 14.6863091090580991 O
atom -0.7058166147083278 12.4902235257325938 12.1188469323885339 C
atom 2.5389183558588226 9.6384873309033985 14.3937799258141599 C
atom 0.2306101533391379 11.8752666446765502 11.1301850780928611 C
atom 1.5772180823993989 10.2350817614193446 15.3716994819552539 C
atom -2.2331597413900330 12.3996283807048027 14.0454754605262462 H
atom 3.5394284887594738 9.9899668596852784 12.7953471275025894 H
atom 5.9579537286996489 -1.9459911236784058 10.5882546573980054 H
atom -3.1203095240111685 6.8137920934978036 15.8638343235197663 H
atom 1.0478609131406429 11.3798509041682756 11.6819052778941082 H
atom 0.7641954488173567 10.7242532103894881 14.8104540916721135 H
atom 2.1156506414784038 -1.0972278586993021 7.8088040747814063 O
atom -0.3449918157092122 2.0111540101195389 8.2028294543824103 O
atom 3.4451661453961546 -1.3708812894716202 9.5989048726786397 O
atom 9.3557479267658525 2.3332112838573469 6.3854231104370820 O
atom 2.3938814554545202 -1.0567828415586833 9.0868729665519510 C
atom -0.5503972566787613 2.0759623478038463 6.9253955753106586 C
atom 1.2450429396608238 -0.5021521668879694 9.8540741421435953 C
atom 0.6592860592042767 1.7953396526622760 6.1313121954701151 C
atom 2.9350869033182536 -1.3738711409284368 7.2695724580564205 H
atom -1.1783242721076479 2.3342167206304358 8.7287258044327469 H
atom 0.3343341859144711 -0.9614727272423564 9.5500088948715867 H
atom 1.3449939384508287 2.6187235767796224 6.3139841818228772 H
atom 1.1295923392477814 0.5720564814800896 9.6187490195159189 H
atom 1.1313492077144416 0.8614370600925121 6.4849084332479716 H
atom 4.5006789615572531 1.2783281886225524 7.8577529703133600 O
atom 8.3558675147915036 -0.1036340724430041 8.1624532302841608 O
atom -0.7740646045110965 -1.1776469252289352 6.6291621513237633 O
atom 2.8311247409808735 2.5240696422520483 9.4275572794543514 O
atom 4.7470374298264542 2.0062220781589137 6.7833114839557433 C
atom 7.9752832373149483 -0.8310358271378012 9.1910679668788884 C
atom 5.7343234232747431 1.3480737500399744 5.8612730453084270 C
atom 6.9918602377843175 -0.1863233093708219 10.0911984674178505 C
atom 3.8405250516646250 1.7920799208084723 8.4044459862491614 H
atom 9.0760777506724715 -0.5895404977868546 7.6476166847378035 H
atom -0.4712323402292442 4.8746379398764015 5.4498377342155164 H
atom 1.3691614634123894 13.6271079274715117 10.6022778544963483 H
atom 6.5268721890932033 0.9172493845439196 6.4597725139207522 H
atom 6.1804198441767673 0.2153169308432085 9.4719552506449567 H
atom 1.9125735804044284 13.6658966198227798 13.1055508308629278 O
atom 0.4207752895376570 -0.2042095003868224 13.4387208268296128 O
atom 3.2159688953118315 13.3324091175066997 14.8625251329731327 O
atom -0.8760899781171586 0.0654698092455498 11.6962459813418462 O
atom 2.1339813413835587 13.6463170616099987 14.3809209186636036 C
atom 0.2247204105578336 -0.1924353065967037 12.1621336313562516 C
atom 0.8953414464355640 13.9550390686731554 15.1507150627753191 C
atom 1.4094583109232899 -0.6098714876932079 11.3861481134313056 C
atom 2.7338937132506982 13.4560249228717197 12.5886504940454955 H
atom -0.3880562602323518 0.1547843453307736 13.9340836496129885 H
atom 0.1181229455204625 13.2452536245973711 14.9050709837922586 H
atom 2.1854597041657051 0.0927647717486654 11.7446656996248073 H
atom 0.4988236419917965 14.9216871494106744 14.7693899371501711 H
atom 1.7363046387644945 -1.6049787208816293 11.7184185080747003 H
atom 5.0900659979418990 -1.3563447904417523 12.9956936339717544 O
atom -2.0401740904543755 -2.6226765308296085 13.3709861389583686 O
atom -1.0311018696649996 13.7053203248728401 11.8387004967710592 O
atom 3.4215595483185282 -0.1239862294393171 14.6035987050403229 O
atom 5.4653955453359417 -0.4842289334645392 12.0482546873727223 C
atom -3.2827828147698264 14.0025062679079237 14.3858422670792514 C
atom 6.4645351091616989 -1.1131084679416152 11.1205011344362692 C
atom -3.2660555219291223 -2.4778354260074340 15.3891623311720593 C
atom 4.4100944000744420 -0.9357123787613237 13.6399140168971691 H
atom -1.8448706431681234 14.0172703131548619 12.4129636473794545 H
atom 0.1577001119727311 2.2624867445292858 10.6372564706548598 H
atom 2.1602602835686060 11.0060400954788467 15.8806621600377778 H
atom 7.2585126535524429 -1.5002545433056971 11.7339763191951274 H
atom 6.9007888332324328 -1.9894154087308615 14.8715740639309324 H
