&CONTROL
  calculation = 'scf',
  restart_mode = 'from_scratch',
  prefix ='benzene_I_npt_fep_0',
  pseudo_dir = '../../pseudo_nc_sg15/',
  outdir = './',
  tstress = .true.
  tprnfor = .true.
  disk_io = 'low'
/
&SYSTEM
  ibrav = 0,
  nat = 192,
  ntyp = 2,
  ecutwfc = 100.0D0,
  input_dft = 'pbe',
  vdw_corr = 'ts',
  nosym = .true.,
/
&ELECTRONS
  conv_thr = 1.D-14,
  mixing_beta = 0.5D0,
  electron_maxstep = 300,
/
&IONS
/
ATOMIC_SPECIES
  H     1.00794         H_ONCV_PBE-1.0.upf
  C     12.0107         C_ONCV_PBE-1.0.upf

K_POINTS automatic
2 2 2 0 0 0

CELL_PARAMETERS angstrom
14.18431040357234 0.00000000000000 0.00000000000000
0.00265117801746 9.42233959177927 0.00000000000000
-0.00228604571565 -0.00502189209295 13.83048661957741

ATOMIC_POSITIONS angstrom
C 6.7262661765 1.2292787494 0.0736508895 
C 0.3047002600 8.1446728747 6.8539566467 
C 3.7540151550 8.1063604419 3.4130503782 
C 3.1155892630 1.4259739329 3.2219221394 
C 0.2129568003 5.9908156359 3.5111810072 
C 6.7345742593 3.4283330171 3.4535536048 
C 3.3114695134 3.5033650592 7.0487467921 
C 3.7544173297 6.0437862785 -0.0033073578 
H 6.4886126740 2.2918984160 0.1749459985 
H 0.4540658303 7.0590128307 6.7586518242 
H 3.8865740559 7.0185836889 3.4135742636 
H 2.7952941495 2.4806241901 3.1425825944 
H 0.4585479616 7.0404387092 3.5574681412 
H 6.4239472142 2.3735240067 3.4583003247 
H 3.1570503004 2.4038511548 7.0338239936 
H 3.9841807994 7.1326213860 0.0732328395 
C 0.5319554296 0.8682316960 0.8873349947 
C 6.4723669324 8.6295579880 5.8904307117 
C 2.8451955640 8.6702517184 4.3055660181 
C 4.1437965331 0.8742643166 2.4197370558 
C 6.5301530880 5.6438341137 2.4854979126 
C 0.6060402444 3.8149287481 4.4204080647 
C 4.2784615594 4.0369609383 6.1706829828 
C 2.7433289436 5.5600653552 0.8341473894 
H 0.9280922264 1.5661265273 1.5937072455 
H 5.9688018623 8.0228562720 5.1722631000 
H 2.3569342999 8.1056195937 5.0495151454 
H 4.6584319913 1.5028580954 1.6625690809 
H 6.1976181048 6.3884923385 1.7486979699 
H 1.1317937166 3.1975852777 5.1654843395 
H 4.8610962941 3.3571322183 5.5149265358 
H 2.1920003350 6.1814781987 1.5208659972 
C 0.9129048393 8.9388620900 0.9184612004 
C 6.2472020130 0.5984994686 5.9154078779 
C 2.5228313675 0.6028016796 4.1655139674 
C 4.4571117986 8.9491810464 2.5184656552 
C 6.1662378939 4.2743498522 2.4725013193 
C 0.9054116895 5.1503075360 4.3847944358 
C 4.5871835665 5.3764408498 6.1852353571 
C 2.4059414050 4.2068374187 0.7786949054 
H 1.6164830343 8.5978602708 1.6677761850 
H 5.5508576710 1.1000854158 5.2612971722 
H 1.6922506328 0.9740195198 4.7911443535 
H 5.1961660364 8.4865213776 1.8768064901 
H 5.5054542631 3.8106635795 1.7086657110 
H 1.6474928211 5.5698022166 5.0363386319 
H 5.3580254815 5.7546967474 5.5077297253 
H 1.7021568309 3.8080759028 1.5038476568 
C 6.9172991634 1.3694948451 6.8690381983 
C 0.3235072194 8.0527547866 13.8490448657 
C 3.9463763768 8.0851404342 10.4022488544 
C 3.2215093811 1.3709659578 10.1105663547 
C 0.5346754006 5.9489577155 10.1490375407 
C 6.7700820527 3.2573082220 10.4287606346 
C 3.0940147065 3.3493374374 13.7664402971 
C 3.8715983397 6.2534463045 7.0274738666 
H 6.8020972763 2.4657596012 6.8702553060 
H 0.7167970426 7.0409149688 13.8569825244 
H 4.2593794278 7.0275797021 10.4942198603 
H 2.9790615327 2.4340830511 10.0026671137 
H 0.8713273829 6.9825467182 9.9025996959 
H 6.6830323953 2.1689864164 10.3869027142 
H 2.8126247044 2.3092342627 13.7568092712 
H 4.0787553574 7.3119595557 7.0308606010 
C 0.6649482558 0.8868640269 7.8075340494 
C 6.5221625116 8.4932419286 12.8692202715 
C 2.9530524709 8.6288171398 11.1885004109 
C 4.2271737004 0.8434609089 9.3215630765 
C 6.3830418128 5.5028612946 9.5938247711 
C 0.7219088949 3.8460232033 11.2760263279 
C 4.0907835563 3.8499444067 12.9152586921 
C 2.9422837139 5.7117804725 7.9102473534 
H 1.1440759206 1.5179978565 8.5445721218 
H 6.0389178478 7.8308707661 12.1434536745 
H 2.3559129878 8.0059755178 11.8797646513 
H 4.7477782780 1.4177081842 8.5697609588 
H 5.8996913136 6.1864524648 8.9232513612 
H 1.1999940805 3.2565673739 12.0039625516 
H 4.6001801597 3.2126139116 12.2077487102 
H 2.4210705825 6.3092745043 8.6146881073 
C 1.0107602962 8.9765395101 7.7226540186 
C 6.0806699327 0.3885801457 12.9816175191 
C 2.5724946523 0.5360777203 11.0385844963 
C 4.5758591733 8.9479110210 9.4680922567 
C 6.0811461923 4.1569254206 9.6000690626 
C 1.1478172037 5.1510483841 11.1014507535 
C 4.4154920080 5.1909113063 12.9200742051 
C 2.6375199527 4.3401583348 7.8832593137 
H 1.7068823837 8.5757406617 8.4215913291 
H 5.3520457786 0.8061750800 12.3220509960 
H 1.7342461393 0.9515400703 11.6134297419 
H 5.3192897069 8.5446250395 8.7719066680 
H 5.2924075026 3.8619884809 8.9101277654 
H 2.0342049711 5.5487938798 11.6360256104 
H 5.1908319297 5.5969490094 12.2551100740 
H 1.8934120722 4.0247634027 8.6038928914 
C 13.7964446471 1.3072318500 -0.0856155871 
C 7.3438689438 8.0455050583 6.8319428731 
C 11.0951006265 8.1893883523 3.5879857931 
C 10.1974572590 1.3671082557 3.2959275776 
C 7.4555782611 6.1195115428 3.4552575555 
C 13.7823685323 3.3240586402 3.5575898519 
C 10.3179509186 3.3474429828 6.7696587109 
C 10.9225888433 6.0053680102 0.2220851079 
H 13.4785149560 2.3596225204 -0.1360355954 
H 7.4356282788 6.9357145317 6.8011447572 
H 11.3869418793 7.1380189940 3.5576798121 
H 9.8770404347 2.4078094006 3.2717335938 
H 7.7436094377 7.1701400530 3.4982267482 
H 13.5936110076 2.2452038156 3.6343417201 
H 10.0360581981 2.3191404608 6.7084329032 
H 11.0935130947 7.0681675971 0.2997365774 
C 7.7581618121 0.7328469886 0.8776087168 
C 13.4542257202 8.6762314213 6.0633129190 
C 10.0651629468 8.6670237372 4.4070410473 
C 11.2603626813 0.9211017949 2.5179523533 
C 13.4041655525 5.5293201570 2.6447008879 
C 7.6337522408 3.9244102292 4.3978227797 
C 11.2472390856 3.9537266488 5.9238217961 
C 9.9676884975 5.3781342170 1.0992651911 
H 8.2846402571 1.3809039066 1.5545216702 
H 12.8800684051 8.0438116911 5.4074506366 
H 9.6032970438 8.0757210792 5.2081571928 
H 11.8292282240 1.5488541819 1.8597458156 
H 12.8278915283 6.1745988944 1.9540293261 
H 8.0624916479 3.2013053937 5.0657132609 
H 11.6974630890 3.3703140235 5.1100159802 
H 9.4691506112 5.9701777232 1.8790290346 
C 8.1683270977 8.8072557082 0.7885111434 
C 13.1286758766 0.6078711977 6.1517913550 
C 9.5907555430 0.5592292250 4.2428849729 
C 11.6770368472 9.0281342919 2.6640793588 
C 13.0974544190 4.1273920383 2.6652065063 
C 7.9888830926 5.2575294302 4.3937586984 
C 11.6103075961 5.2858404130 6.0571744629 
C 9.6787577196 4.0485710871 0.8818262595 
H 8.9600291800 8.4657776294 1.4258098879 
H 12.3185584262 0.9214034259 5.5409620565 
H 8.7472470081 0.9073908124 4.8200427231 
H 12.5128193943 8.6757022441 2.0001153727 
H 12.3978820958 3.7044365385 1.9584162055 
H 8.7081937272 5.6465329177 5.0703858961 
H 12.4416979720 5.6602386084 5.4862980467 
H 8.9506098249 3.5432756074 1.5277400096 
C 13.8129020596 1.4149035448 7.0238225436 
C 7.5167511511 7.9790933135 13.6725113354 
C 11.0841466574 7.9691976990 10.4408258758 
C 10.4389208377 1.3088934665 10.4018784303 
C 7.4182712650 6.0029337949 10.3970629173 
C 13.8642322527 3.3571586771 10.5125293931 
C 10.3359958628 3.3069873821 13.7154276103 
C 10.9731252706 6.0894013573 6.9876797375 
H 13.5138639962 2.4725171947 7.1555876786 
H 7.7679515912 6.9043872385 13.5518589227 
H 11.3760937457 6.9302110883 10.5089839055 
H 10.2513804207 2.3881081317 10.4792970618 
H 7.6700008824 7.0712368251 10.4083873105 
H 13.5405874473 2.3504783375 10.6692187765 
H 10.1191919439 2.2424573857 13.6203873764 
H 11.2707345554 7.1415115638 7.0347235950 
C 7.7774238639 0.7833887076 7.8066344481 
C 13.5372007129 8.4887968397 13.0063300967 
C 10.0896109357 8.4896435233 11.2783017901 
C 11.4144061785 0.8303267296 9.5192107790 
C 13.6198581992 5.4912723128 9.4371353877 
C 7.7157217967 3.8121981935 11.3207418055 
C 11.3130687353 3.8990996814 12.9136182427 
C 10.0117160446 5.5019087755 7.8249968986 
H 8.2706170600 1.4268735342 8.5627229014 
H 13.0793036393 7.7763655094 12.3255435658 
H 9.6001748981 7.8838414087 11.9959719752 
H 11.9675022392 1.3784326488 8.7656094587 
H 13.1757726518 6.1252266571 8.6903604539 
H 8.1909229663 3.2074438498 12.0768302588 
H 11.8068969441 3.3435905725 12.1321821991 
H 9.6701321304 6.0774948692 8.6411998874 
C 7.9945982069 8.8124945629 7.8111853724 
C 13.1723859174 0.4059689101 12.9188570974 
C 9.7983517778 0.4365024374 11.2816356068 
C 11.7358813573 8.8618138826 9.5598515917 
C 13.1936059251 4.1608519158 9.6046729047 
C 8.0836587379 5.1496460644 11.2821118663 
C 11.5924743228 5.2545395787 13.1104192616 
C 9.7063807719 4.1691599986 7.7215956641 
H 8.6385540012 8.3837022381 8.6037341382 
H 12.3292478066 0.7404724327 12.2569092767 
H 9.0355956911 0.8027089690 11.9535848775 
H 12.5134014892 8.5126098159 8.8783242127 
H 12.3702061257 3.7831093201 9.0328968872 
H 8.9136203352 5.5328127269 11.8826751262 
H 12.3625330556 5.6947409650 12.5069455268 
H 9.0566569456 3.7647839120 8.4624438127 

