&CONTROL
  calculation = 'scf',
  restart_mode = 'from_scratch',
  prefix ='benzene_II_npt_fep_0',
  pseudo_dir = '../../pseudo_nc_sg15/',
  outdir = './',
  tstress = .true.
  tprnfor = .true.
  disk_io = 'low'
/
&SYSTEM
  ibrav = 0,
  nat = 192,
  ntyp = 2,
  ecutwfc = 100.0D0,
  input_dft = 'pbe',
  vdw_corr = 'ts',
  nosym = .true.,
/
&ELECTRONS
  conv_thr = 1.D-14,
  mixing_beta = 0.5D0,
  electron_maxstep = 300,
/
&IONS
/
ATOMIC_SPECIES
  H     1.00794         H_ONCV_PBE-1.0.upf
  C     12.0107         C_ONCV_PBE-1.0.upf

K_POINTS automatic
2 2 2 0 0 0

CELL_PARAMETERS angstrom
11.26758065902169 0.00000000000000 0.00000000000000
0.00242892357288 11.26862842997470 0.00000000000000
-0.00538702439476 0.00690047132688 14.07139985395447

ATOMIC_POSITIONS angstrom
C 1.8226081563 0.4289881204 0.8962304642 
C 3.8536539392 4.9935758184 7.9522640270 
C 2.2342392630 4.5474846892 11.5730535178 
C 3.3809875286 0.9578478631 4.2703810228 
C 1.0299218044 3.4734930035 9.7649077757 
C 4.6745930644 2.1925136369 2.6512891447 
C 0.5741255645 1.8436694108 13.4098806668 
C 4.9867070977 3.8394455301 6.0953281425 
H 2.6879611280 0.3405731857 1.5624434536 
H 3.0027051722 5.1257960458 8.5666388131 
H 2.2300693463 5.2884968828 12.3552833272 
H 3.2577527309 0.1089628873 4.9013084732 
H 0.2018229110 3.4165429480 9.0641183448 
H 5.5273622012 2.2597932323 1.9673275504 
H 0.5036709056 2.7585269142 12.8346649971 
H 4.9689373256 3.0155218452 5.3948562180 
C 0.7274599642 5.2935187749 0.7983273814 
C 4.7565996627 0.4263263589 7.8104974420 
C 3.2096558107 3.5115725984 11.5904105315 
C 2.4183400279 1.9594110587 4.2940246623 
C 1.9568339655 2.4510855161 9.7909432963 
C 3.6935936967 3.2160482719 2.6444574664 
C 5.1363690072 0.7016890322 13.2646744296 
C 0.3797852198 4.8035218094 6.1625336532 
H 0.7577024440 4.4327273110 1.4817968409 
H 4.5992382242 1.3414061167 8.4063510243 
H 3.9992147251 3.5238018846 12.3033181214 
H 1.5579560305 1.8910201911 4.8999061535 
H 1.9085888757 1.6061376191 9.0953398025 
H 3.7876655363 4.1514113937 2.1044691262 
H 4.2048424205 0.7439385437 12.6953855452 
H 1.2054922321 4.7587957483 5.4281943847 
C 5.2691025366 5.4860334580 0.1168846708 
C 0.2132213889 0.2600006577 6.9566170330 
C 3.0569035060 2.4729828706 10.6712825678 
C 2.5821468453 3.0900987949 3.4584220355 
H 4.4783900158 4.7663682747 0.1086559645 
H 0.9893762436 1.0198092272 6.9881030793 
H 3.7451726032 1.6312999972 10.5690455233 
H 1.8210312081 3.8900137080 3.4194481311 
C 1.6873345761 1.5784986913 0.1483760088 
C 3.9173774635 3.9408676416 7.0410208042 
C 1.1268776600 4.4924767142 10.7219248305 
C 4.4956994036 1.0401084664 3.4420757503 
H 2.4930492719 2.3215217584 0.2320071813 
H 3.1404870525 3.1690202898 7.0738297937 
H 0.3926759776 5.2792415727 10.7102300133 
H 5.2675308802 0.2633556415 3.4476850291 
C 1.7255570488 6.2794289075 0.8141868235 
C 3.8413082340 10.6363039516 7.8669077367 
C 2.1595935202 10.3358371096 11.3576254597 
C 3.4029060503 6.7547359125 4.2338677926 
C 1.0134802673 9.0195616205 9.6720900862 
C 4.8273929951 8.0402132858 2.7934737797 
C 0.6061937058 7.4392796018 13.0600945052 
C 5.1435975685 9.3737928710 6.2751954895 
H 2.5628371675 6.2077253902 1.4593597255 
H 3.0112725519 10.7522996046 8.5782277948 
H 2.2074099765 11.1890825059 12.0090426532 
H 3.2752526225 5.8497898990 4.8148620778 
H 0.1737447662 8.8863147892 9.0164923924 
H 5.7989888831 8.0501089003 2.2568827575 
H 0.5753955899 8.2613564581 12.3444351936 
H 5.3138920989 8.4669418194 5.6594448425 
C 0.8583254979 10.7125054755 0.7666137888 
C 4.8975566065 5.9233455366 7.9714202434 
C 3.2364057207 9.4240647096 11.3414855536 
C 2.4264734822 7.7455144758 4.2513094747 
C 2.0204304873 8.0540777297 9.7194514500 
C 3.8459544102 9.0117297972 2.7818530473 
C 5.1551283407 6.6403277913 13.3665939678 
C 0.4078316140 10.3791238086 6.1518971905 
H 0.9374798308 9.7611506172 1.3105868337 
H 4.7843391341 6.7621973117 8.6487671221 
H 4.1233597077 9.5952535497 11.9806258350 
H 1.5001963338 7.6152310371 4.8158040133 
H 1.9402230917 7.1672295781 9.1142314303 
H 4.0350453166 9.9372608057 2.1818665906 
H 4.2576860606 6.7882857501 12.7657132016 
H 1.3559373240 10.2619110479 5.5604886970 
C 5.3972904334 10.9248643055 0.0396406677 
C 0.2115968148 5.8417993225 7.0599124320 
C 3.1304856025 8.2637377557 10.5384061605 
C 2.6437166182 8.9259501651 3.4925910105 
H 4.6801282585 10.0754289854 0.1505773862 
H 0.9482697549 6.6122284794 7.1003415738 
H 3.8818590866 7.4857942820 10.6144489312 
H 1.8436323684 9.6121872216 3.3811939078 
C 1.6578541116 7.3445039565 -0.0844249383 
C 4.0577999383 9.4821154538 7.1709338188 
C 1.0952116934 10.1832753087 10.4703010486 
C 4.5973649367 6.9153941253 3.5735657131 
H 2.4209118293 8.1090063281 -0.1325165667 
H 3.3796540020 8.6311455197 7.2500987353 
H 0.2947517277 10.9178791658 10.4838479862 
H 5.3422559995 6.1312063600 3.6003050395 
C 7.5066438656 0.5612453903 0.7269942882 
C 9.4307852607 4.9097329750 7.8917790674 
C 7.8260552531 4.6449326796 11.4492789592 
C 8.9298660768 1.0701551506 4.4232709136 
C 6.5321110439 3.4346143511 9.7961292334 
C 10.1889375053 2.1706004070 2.6609677966 
C 6.1012020100 1.7160424419 13.1945055264 
C 10.7444148636 3.7474110229 6.1350693539 
H 8.3784633833 0.5342414753 1.3514128585 
H 8.4975282643 4.8214873770 8.4576282998 
H 7.9386641717 5.5260392581 12.0840270694 
H 8.8110128667 0.3101190350 5.1786343941 
H 5.6200211375 3.3892374019 9.2134521645 
H 11.0627678966 2.1025746717 2.0191128359 
H 5.9937261107 2.5427495991 12.4805395821 
H 10.8595109152 2.9401511296 5.4166054030 
C 6.4450084687 5.3016681045 0.8483769656 
C 10.3029222847 0.3788009501 7.7085249861 
C 8.8251948169 3.6652562550 11.3586308965 
C 7.9710498193 2.0807196513 4.3383220898 
C 7.5159044675 2.4741100182 9.7345859193 
C 9.2416573119 3.1674433416 2.5478614514 
C 10.8800959102 0.8708881658 13.3166925532 
C 5.9985945414 4.7912131466 6.1183473529 
H 6.5550244187 4.3924304635 1.4830086568 
H 10.2338646537 1.2781906025 8.3403626214 
H 9.7142655130 3.7450297253 12.0417458072 
H 7.1152643722 1.9985701751 5.0420008284 
H 7.3990092132 1.6240343936 9.0650179462 
H 9.3519907683 3.9000204498 1.7490842693 
H 9.9955761385 1.0283924822 12.7025823558 
H 6.8215180813 4.7542501157 5.4351266067 
C 10.8943307782 5.4488852152 -0.0548068877 
C 5.8983683705 0.3296615508 6.9919660732 
C 8.6191861139 2.5480360799 10.5679342510 
C 8.1155152083 3.1376294954 3.4456688638 
H 10.0445779518 4.7412111883 -0.0535527376 
H 6.6487946273 1.1244487364 6.9676768375 
H 9.4237472033 1.7954984058 10.4415138063 
H 7.3573100459 3.9108527081 3.3909360609 
C 7.2692020340 1.6692843402 -0.1124607490 
C 9.6546272370 3.8035726044 7.0190599484 
C 6.6842495029 4.5023776205 10.6906504551 
C 10.0688142698 1.1287932816 3.6058666924 
H 8.0515376789 2.4258331777 -0.1924882243 
H 8.9281727096 2.9785852732 7.0132919164 
H 5.8616963871 5.2123271095 10.8207751406 
H 10.8744866314 0.4000103743 3.6313571605 
C 7.4492281341 6.2670990776 0.8414077012 
C 9.3333108114 10.6209048937 7.6897921115 
C 7.9922698270 10.2977892654 11.2818472777 
C 9.1354514380 6.6627649066 4.3640083535 
C 6.5807953508 9.0496188882 9.8116870445 
C 10.4419371481 7.9324198801 2.7330364461 
C 6.1632745013 7.5679755088 13.2659973728 
C 10.6830832204 9.3893506821 6.0957514843 
H 8.3254398230 6.2226481886 1.4756266341 
H 8.4649309458 10.6814956887 8.3098820119 
H 8.1722430094 11.1448432879 11.9798849868 
H 9.0806815927 5.8130649979 5.0558758559 
H 5.6332505687 8.9828367194 9.2755775735 
H 11.3167729761 8.0316935321 2.0359089218 
H 6.0732085335 8.4648780281 12.6526809412 
H 10.8681365044 8.5382219948 5.4537007281 
C 6.5561356910 10.8547483200 0.8228600386 
C 10.4147374375 5.8781008818 7.9641175974 
C 8.9196529559 9.2522408569 11.2926424935 
C 8.1619240530 7.6564010271 4.3441906655 
C 7.4871701428 7.9787758072 9.8400509450 
C 9.4326373810 8.9016609294 2.7255062539 
C 10.8431593382 6.5132723338 13.1152347745 
C 6.0499776523 10.4306656726 6.2039682318 
H 6.7073745487 9.9735623650 1.4391927805 
H 10.4119857158 6.7442582030 8.6290817284 
H 9.8636522504 9.3747453900 11.8509244912 
H 7.2707366480 7.4926206685 4.9638995582 
H 7.2952375546 7.0952085545 9.2743604659 
H 9.5239204565 9.8389925905 2.1547462566 
H 9.9715514914 6.6784285532 12.4621771315 
H 6.9978399407 10.2965721578 5.6696050457 
C 11.0226033434 10.9291506412 -0.0645596244 
C 5.9563132792 5.8486257091 7.0584836534 
C 8.6813115229 8.0987932072 10.5360777806 
C 8.3530628754 8.7836014852 3.5705599863 
H 10.2463003191 10.1591448262 -0.1022899622 
H 6.8117812200 6.5153361251 7.1015586815 
H 9.4364474572 7.3243423033 10.5252296470 
H 7.5695630405 9.5512789203 3.4677725975 
C 7.2926975038 7.4129265748 0.0620354489 
C 9.5770498523 9.4834383969 6.9232788663 
C 6.8201951382 10.2023786074 10.5348077552 
C 10.2914391384 6.8335304049 3.5707240313 
H 8.0944539538 8.1626649012 0.0468427701 
H 8.8627664016 8.6655420409 6.9264010121 
H 6.0472788483 10.9728077642 10.4874463915 
H 11.0817124421 6.0867554711 3.6213927529 

