&CONTROL
  calculation = 'scf',
  restart_mode = 'from_scratch',
  prefix ='glycine_gamma_npt_fep_0',
  pseudo_dir = '../../pseudo_nc_sg15/',
  outdir = './',
  tstress = .true.
  tprnfor = .true.
  disk_io = 'low'
/
&SYSTEM
  ibrav = 0,
  nat = 240,
  ntyp = 4,
  ecutwfc = 100.0D0,
  input_dft = 'pbe',
  vdw_corr = 'ts',
  nosym = .true.,
/
&ELECTRONS
  conv_thr = 1.D-14,
  mixing_beta = 0.5D0,
  electron_maxstep = 300,
/
&IONS
/
ATOMIC_SPECIES
  H     1.00794         H_ONCV_PBE-1.0.upf
  C     12.0107         C_ONCV_PBE-1.0.upf
  N     14.0067         N_ONCV_PBE-1.0.upf
  O     15.9994         O_ONCV_PBE-1.0.upf

K_POINTS automatic
2 2 2 0 0 0

CELL_PARAMETERS angstrom
14.42265712829177 0.00000000000000 0.00000000000000
0.00818637204194 12.49436169181973 0.00000000000000
-0.00192620518634 -0.00042863357169 10.91433367822817

ATOMIC_POSITIONS angstrom
O 5.4149120358 3.3847499789 0.0343118528 
O 2.0901654652 2.7339572145 1.9680313561 
O 0.3908079819 6.0840037494 3.6818935877 
O 6.0715151663 1.2985586349 5.5493230570 
O 2.9201905638 4.8461258697 1.8753247938 
O 1.6524829625 -0.0608871343 3.4903631742 
C 5.7312541952 2.4259072626 4.9468918015 
C 2.3448055574 3.7788864857 1.4005152154 
C 2.8005700466 -0.2198202292 2.9030769715 
C 13.2762634114 2.6355461215 3.2443275041 
C 1.8705939492 3.8646184918 5.3135745926 
C 13.6082162997 5.9295369104 1.6243677753 
N 5.9541436525 1.0654243060 2.7255274209 
N 2.8778828427 4.7849318126 4.6631892947 
N 1.5160716513 0.3157600645 0.7283807326 
H 14.2422235617 3.1041802015 3.0127277893 
H 0.8419474620 4.2062923662 5.0492082225 
H 13.5948281153 4.8617895163 1.5400010465 
H 4.8375902407 2.7363596792 3.0343288046 
H 1.8076218566 2.8844499324 4.7690141610 
H 3.6119522307 0.2925185997 0.9571017232 
H 5.9366808033 1.1602105349 1.6372532413 
H 2.8148049146 4.7758193804 3.6269332387 
H 1.6986642610 0.4328193637 5.0384394655 
H 14.1427911566 0.8834137912 2.8814547891 
H 2.6387688110 5.7794622426 4.9319531277 
H 11.6150172736 5.9114919662 1.0407646462 
H 5.1227162342 0.4060165361 2.8799148833 
H 3.8024348733 4.6055566005 5.0640357691 
H 1.4715731364 1.3087241298 1.0390077778 
O 5.2366269288 3.4278779247 5.4730156977 
O 1.8859295059 2.6873896166 7.5093426696 
O 0.1137731085 6.2443973736 9.2554688381 
O 5.8406351326 1.2104717900 11.0310701794 
O 2.5562224519 4.8330181492 7.3640835147 
O 1.5358099627 0.0833242496 8.8428164193 
C 5.7029432124 2.3037255275 10.3927236639 
C 2.0940707933 3.7765157716 6.8715253314 
C 2.6557024829 -0.0897008355 8.3077653029 
C 13.3201322053 2.6600681952 8.6428403369 
C 2.0737398034 3.7490514724 10.8012485001 
C 13.7126229709 6.6600131849 7.0735122873 
N 6.1224220177 1.1184743252 8.2305583422 
N 3.0097538132 4.6178335127 10.0562727690 
N 1.6471276888 0.3960680038 6.1030012126 
H 14.3704432091 3.0439492470 8.4668359839 
H 0.9467827668 4.0530108842 10.6794848151 
H 14.3702315382 5.9447242975 6.5932310161 
H 4.8471154312 2.7292739959 8.5388040898 
H 2.2225074034 2.6908292687 10.4047889052 
H 3.6959961614 0.3851669525 6.5167649036 
H 6.1465525002 1.2897107912 7.1419349056 
H 2.7696449282 4.6517326073 8.9927323340 
H 1.5534315651 0.3700324831 10.5977269302 
H 14.0960648055 0.8193198428 8.0824945480 
H 2.9625194519 5.5719189256 10.5367127933 
H 11.8327207939 6.0457971520 6.8186076065 
H 5.2432892704 0.4008253073 8.3429026722 
H 4.0334895355 4.3200284323 10.3559458451 
H 1.5191832135 1.3670870886 6.4837442433 
O 12.6855428483 3.5532347232 -0.1515087382 
O 8.6643249332 3.1253737503 2.0099527778 
O 7.6146489421 6.2088895802 3.8065783311 
O 13.4857117665 1.4499827047 5.2025532058 
O 10.2271441027 4.7569806703 1.9824408526 
O 8.9356870265 0.2041936251 3.4459652030 
C 13.1358726872 2.5531373485 4.7047402923 
C 9.4261285009 3.9607488309 1.3689550843 
C 10.1077087976 0.1058513251 2.9193068378 
C 5.7856006987 2.3383390114 3.4946812606 
C 9.3922611569 3.7854112412 5.1791053619 
C 6.6319667907 6.0851150216 1.6290986199 
N 13.3072731982 1.3102269932 2.5410826908 
N 10.3035572974 4.7603779883 4.7065500785 
N 8.8475260968 0.3745516568 0.7071078072 
H 6.6099530172 2.9819984664 3.0871036516 
H 8.4556174262 3.8942471260 4.7699719718 
H 6.6976906051 4.9833891563 1.4212060459 
H 12.4302148257 3.2067559194 2.8570385509 
H 9.9185808488 2.8421051689 4.8815278277 
H 10.8798842393 0.9489471018 1.0996991165 
H 13.3038864638 1.3839308004 1.3648169182 
H 10.1534826296 4.8613344238 3.6859259184 
H 8.7489932931 0.1242349427 5.0827792272 
H 6.8037377258 0.4867319419 2.9610377556 
H 10.2059240950 5.7166489032 5.1284101814 
H 4.5601214419 6.0864908825 1.3263457322 
H 12.3908440384 0.7227926209 2.7379736698 
H 11.2663953020 4.4812687401 4.9661908957 
H 8.4917073146 1.2884090152 0.9879368815 
O 12.7135892425 3.5971828937 5.3240523021 
O 8.5197007911 2.9460884983 7.1774956167 
O 7.5263292593 6.5517435198 9.3591346612 
O 13.6089042301 1.5139126081 10.7398110215 
O 10.0742647955 4.5570627974 7.2980951118 
O 8.9595000027 0.0739048946 8.8483727804 
C 13.1748201328 2.5633345941 10.1558110095 
C 9.2787526370 3.7554121829 6.6981668646 
C 10.1234782796 0.0270938751 8.3315253613 
C 5.8097311813 2.4155512638 8.8984329482 
C 9.1288896401 3.9116200151 10.7752129795 
C 6.5766677682 6.0299218346 7.1868620540 
N 13.2824018675 1.3748183682 7.9507823307 
N 10.0403974515 4.7349563132 9.9257776594 
N 8.8674760791 0.2068448031 6.1444357912 
H 6.4986670417 3.2010355133 8.6857036941 
H 8.1561031033 4.3437937825 10.7598139215 
H 6.8743828885 4.9679583477 7.1825757183 
H 12.5784902909 3.3457337403 8.2156355438 
H 9.0944402012 2.8537470684 10.3969570819 
H 10.7760596631 0.8647550014 6.5329577275 
H 13.1544468087 1.3918949180 6.8965554152 
H 9.9797008211 4.5909036825 8.8871085551 
H 8.8319153680 0.2303561483 10.5762952516 
H 7.0694905402 0.6878510471 8.4157703794 
H 10.0104989369 5.7716304193 10.2205293871 
H 4.6221621826 5.7743821410 6.6434499370 
H 12.4847730001 0.7946443077 8.3449664635 
H 11.0507555730 4.4864864277 10.0460067304 
H 8.5389628429 1.1376940429 6.4349541009 
O 9.3274898617 9.7325221280 0.1269602056 
O 5.2435961932 9.0968214988 1.9489068903 
O 3.9078469813 12.0334377244 3.4886327646 
O 9.7494558000 7.5433158490 5.4197804665 
O 6.7469570069 10.7668519789 1.9644382426 
O 5.3990367183 6.6651462043 3.5795824584 
C 9.5090505758 8.6718921679 4.9473945198 
C 5.8773071160 10.0274855266 1.3659228986 
C 6.5168707391 6.3264727649 3.1412649431 
C 2.0715225507 8.8780596241 3.4301375115 
C 5.6658478873 9.9022821895 5.3323074672 
C 2.8107884593 12.2374884716 1.3246894074 
N 9.8397334387 7.5610432868 2.7626862474 
N 6.7101262704 10.7537813009 4.6485205014 
N 5.3653810453 6.6428149243 0.9814597519 
H 2.7982522503 9.7180755892 3.2013530197 
H 4.6749899474 10.2742937956 5.2105543658 
H 2.7950877703 11.1875478919 0.9435971198 
H 8.6860212004 9.3587113194 3.0994017309 
H 5.7712070775 8.8719740857 5.0346717235 
H 7.4765336801 6.5306293476 1.1125687071 
H 9.8280386215 7.8455289759 1.7357437109 
H 6.6890120982 10.8134724946 3.5748992398 
H 5.5120160610 6.3706590652 5.3947503826 
H 3.2070205080 7.1298696643 3.2029617185 
H 6.6205894799 11.7020140134 5.1033324716 
H 0.7628672139 12.1764214171 0.9647324591 
H 9.0454913057 6.9574637166 3.1104774107 
H 7.6613752932 10.3864264546 4.9758430887 
H 5.1324266367 7.6941313649 1.3380087988 
O 9.2313383555 9.6653166174 5.6452099745 
O 5.3094470101 9.0151694493 7.4756340788 
O 3.8122669866 12.3432710037 8.9001792331 
O 10.0252100645 7.6058645998 10.9464547372 
O 6.8266511006 10.7007048228 7.3750374838 
O 5.2689173246 6.3632505837 9.1709063137 
C 9.6648403579 8.6995152203 10.4084931459 
C 5.9700189700 9.9371020525 6.9322219618 
C 6.4504060766 6.2994847252 8.7212644052 
C 2.1930798566 8.8876377323 8.8875848146 
C 5.8659298051 10.0860654481 10.7226127609 
C 2.8132332582 12.2890832534 6.7984459533 
N 9.7369672169 7.5574977992 8.1394340200 
N 6.7812476927 11.0244554637 10.1383481603 
N 5.3736891281 6.4116703020 6.4016688520 
H 2.9878035409 9.6627236489 8.6605148570 
H 4.8159098488 10.2873644736 10.5448621230 
H 2.9283134345 11.2314166858 6.4483422853 
H 8.4477326852 9.1747693076 8.7314775261 
H 6.1030012126 9.0335318999 10.4638980039 
H 7.4110744544 6.6863132942 6.8515753491 
H 9.8244931339 7.6644445213 7.0906047124 
H 6.8462835766 11.0662075487 9.0797819914 
H 5.4200979728 6.5385670063 10.8950716264 
H 3.3929363509 7.2896811935 8.5790744784 
H 6.5552890074 11.9988824500 10.3879610687 
H 0.7554587324 12.4944569437 6.3962712440 
H 8.8836689029 7.0621349765 8.4748794781 
H 7.6936551054 10.7021865191 10.4864409547 
H 5.0831708184 7.4419784058 6.6164089796 
O 1.4998047426 9.8471948379 0.0343171446 
O 12.5093797421 8.9943727834 1.8223488595 
O 11.1817798599 12.6417269721 3.5745764416 
O 2.6500614535 7.6253383226 5.4030584654 
O 13.7344779913 10.9433325915 1.7528573031 
O 12.5508143207 6.3932020160 3.7469241799 
C 2.0178057681 8.6468620840 4.8972443920 
C 13.0224170850 9.9564170221 1.2602356185 
C 13.6688600124 6.1479283611 3.1251356205 
C 9.5591107436 8.9199175445 3.4620998174 
C 12.7424823203 9.9470505848 5.0371906072 
C 10.2305308371 12.5796015631 1.3607316698 
N 2.3919393750 7.6429599249 2.7881185060 
N 13.6172123129 10.9770941000 4.4460731612 
N 12.4909114562 6.4740602996 0.9104917911 
H 10.3991796263 9.5621270539 3.1940874161 
H 11.7517566748 10.1994681326 4.6565375367 
H 10.6754101503 11.6582510549 1.0054261895 
H 1.0800983911 9.2201197978 3.0446742198 
H 13.0335298073 8.9619871358 4.6856211183 
H 0.1167259176 6.2338667463 1.1963057150 
H 2.6317413371 7.7139755118 1.7143014488 
H 13.5597965814 10.9583083076 3.3631912978 
H 12.5930955829 6.4667576536 5.2166504877 
H 10.7485424461 7.1048395804 3.0545539591 
H 13.1977335076 11.9388737500 4.6604851990 
H 8.2059516002 12.1648853531 1.0701181082 
H 1.5776678831 7.0833549841 3.0346727698 
H 0.1466773499 10.7855848535 4.8102899864 
H 12.3423714024 7.4693897873 1.1468911435 
O 1.4307947376 9.4768236813 5.6107605356 
O 11.9960248929 9.1332288936 7.0617116347 
O 11.1970201646 12.3231622682 8.9655326234 
O 2.7251940393 7.9259639177 10.9994782976 
O 13.4445417766 10.8164888049 7.1273296135 
O 12.3415776365 6.4725256856 9.0303568364 
C 2.1374421606 8.8936703529 10.4828425494 
C 12.7500495550 9.9698581242 6.5460813232 
C 13.5269346742 6.3957949845 8.5708193133 
C 9.5180465890 8.8581625595 8.8814992762 
C 12.7144359261 10.1196152857 10.6381031543 
C 10.2231752733 12.4866251204 6.8015151813 
N 2.4452116486 7.6690483633 8.2955942261 
N 13.6738871963 11.0245612992 9.8158675448 
N 12.4757769868 6.6892237691 6.3389084303 
H 10.2266149254 9.6533042939 8.6347439250 
H 11.7072528681 10.6115913741 10.5484605283 
H 10.7126642286 11.5585540612 6.4396637785 
H 1.3181011507 9.3382321598 8.4588454074 
H 12.5818241075 9.1692658642 10.1950759614 
H -0.1114023945 7.5801995032 6.8284503033 
H 2.5514492731 7.7500124824 7.1927359215 
H 13.5337081430 10.9708498084 8.8064619423 
H 12.5797603163 6.4187083594 10.7304445842 
H 10.5293572296 7.0565786153 8.5285380511 
H 13.5722322468 11.9848592529 10.0600828452 
H 8.2246315570 12.2066374380 6.7404481268 
H 1.7294359181 6.8873477311 8.4765199276 
H 0.1977641215 10.6872637207 10.1251716468 
H 12.0174565715 7.6645503567 6.4576028872 

