&CONTROL
  calculation = 'scf',
  restart_mode = 'from_scratch',
  prefix ='glycine_beta_npt_fep_0',
  pseudo_dir = '../../pseudo_nc_sg15/',
  outdir = './',
  tstress = .true.
  tprnfor = .true.
  disk_io = 'low'
/
&SYSTEM
  ibrav = 0,
  nat = 240,
  ntyp = 4,
  ecutwfc = 100.0D0,
  input_dft = 'pbe',
  vdw_corr = 'ts',
  nosym = .true.,
/
&ELECTRONS
  conv_thr = 1.D-14,
  mixing_beta = 0.5D0,
  electron_maxstep = 300,
/
&IONS
/
ATOMIC_SPECIES
  H     1.00794         H_ONCV_PBE-1.0.upf
  C     12.0107         C_ONCV_PBE-1.0.upf
  N     14.0067         N_ONCV_PBE-1.0.upf
  O     15.9994         O_ONCV_PBE-1.0.upf

K_POINTS automatic
2 2 2 0 0 0

CELL_PARAMETERS angstrom
15.28908962161479 0.00000000000000 0.00000000000000
-0.00080964119096 12.85626601240679 0.00000000000000
0.96246758047047 -0.00768894542788 10.01513982141993

ATOMIC_POSITIONS angstrom
O 3.4303756413 2.4987273438 3.1043442464 
O 15.0029158571 5.9862117938 2.1152220079 
O 0.5432321967 2.4137256023 3.9964206692 
O 2.5728280340 5.6200211375 1.1576704841 
C 15.0350369161 2.5308854452 3.0603854923 
C 3.4439913719 5.8618022226 2.0976691986 
C 15.5387078217 2.6381179230 1.6295801712 
C 2.8475186522 6.0119827258 3.5072386367 
H 0.5834073335 3.6867831855 1.3127829193 
H 2.8574513091 0.3905963110 3.8576545192 
H 4.3582667803 2.2763141460 0.6214551777 
H 13.8392550866 5.5178899284 4.5758644651 
N 1.4277784273 1.7445756792 1.4228253282 
N 1.6962194622 5.1181441428 3.7153375899 
H 1.7550163463 1.7953343609 0.4555898607 
H 1.3415913287 5.1447194242 4.7184671502 
H 2.2188772474 1.9745402363 2.0221079792 
H 0.9001463759 5.3288148974 3.0843201793 
H 1.1084517082 0.7421975506 1.5794088762 
H 2.0245792369 4.0863067167 3.6151855037 
O 3.3979582430 9.2931991759 3.0912947354 
O 14.7210231366 12.3731166005 2.3429640206 
O 0.2211272970 9.1153956203 3.8602792384 
O 2.5122107801 11.6508425734 1.3565776284 
C 14.6392652516 8.9870172197 2.9314091214 
C 3.3981275797 11.9554369979 2.2479184949 
C 15.1437299231 9.0138465062 1.5023977112 
C 2.8986689250 12.1901271078 3.7021081586 
H -0.0315283805 10.0796094857 1.2874459126 
H 2.6049438012 7.0747293950 3.5888430603 
H 4.5579941494 8.8486902868 0.9038082824 
H 13.5856733489 11.8453152124 4.4145924067 
N 1.1966179296 8.3921161563 1.3233029630 
N 1.4992226477 11.5594007448 3.9201821030 
H 1.6214096745 8.6810469343 0.4133562245 
H 1.1609831337 11.6654478655 4.9639471842 
H 1.8085902510 8.8355666910 2.0145883705 
H 0.8312104556 11.8709273912 3.2067559194 
H 1.1317884248 7.3750374838 1.4512950642 
H 1.6248810772 10.4645330166 3.8285656458 
O 8.3551795844 2.5197780148 3.0836534160 
O 4.6561776962 6.0426750063 1.9212997132 
O 5.5305372647 2.2189724993 3.6914716959 
O 7.6056000112 5.5332889864 1.3335584181 
C 4.6596914331 2.4099102343 2.8169480825 
C 8.4507489955 5.7397739489 2.2322125141 
C 5.0827580601 2.4207213255 1.3820469294 
C 7.9471839254 5.6295463280 3.7017589017 
H 5.3658573048 3.4672381285 1.1111028862 
H 7.7863140417 0.3104947508 3.8189981212 
H 9.5267250959 2.4849422765 0.8240824381 
H 3.6582499482 5.6858507873 4.1667839928 
N 6.3147250300 1.5992001053 1.1738315573 
N 6.6263575119 4.9649843716 3.8015246884 
H 6.7466395006 1.7703095688 0.1580652443 
H 6.3231389482 5.0627974943 4.7722580175 
H 6.9482031147 1.8909831486 1.9497800328 
H 5.9932498512 5.2497558164 3.0500612442 
H 6.0364836325 0.6142477835 1.3324630212 
H 6.7158943024 3.9361791312 3.5554413923 
O 6.4177558404 2.6312333269 7.8753216550 
O 2.4195306767 5.8359783728 7.0173665812 
O 3.5342795941 2.1582864524 8.7463474068 
O 5.4909548065 5.3646931149 6.2482603675 
C 2.7039105303 2.2903214678 7.8118733028 
C 6.3666902358 5.6966989209 7.1591331662 
C 3.1834456616 2.3014923996 6.3628801596 
C 5.9662618115 5.7816318693 8.5747881427 
H 3.1532349324 3.4169186638 6.0600320200 
H 6.0316681195 0.2968419778 8.9772803583 
H 7.4106511126 2.1572704321 5.7857065342 
H 1.4006739686 5.1078304782 9.1490512933 
N 4.5154800492 1.8896125796 6.0902480409 
N 4.6182780216 5.2052043838 8.8073615436 
H 4.8176931761 2.2252379580 5.0907856790 
H 4.2643484022 5.4939181991 9.7674478265 
H 5.2031194254 2.4018138224 6.8713665782 
H 3.9430848943 5.4731215332 8.0679950913 
H 4.7253517462 0.8369679041 6.0869142243 
H 4.7260026342 4.1608783747 8.7475115968 
O 8.4452455521 9.2148809431 3.1291309088 
O 4.6244006024 12.1313884332 2.0697180563 
O 5.4099377696 8.6345322541 3.9623046120 
O 7.7611781224 11.7748817205 1.2523879199 
C 4.5853631967 8.9880755742 3.0171517111 
C 8.5424554128 12.0912767977 2.1835282072 
C 5.2901214569 9.1423307422 1.6123607435 
C 7.9530577929 12.1356218512 3.6136932239 
H 5.5675796721 10.2006852402 1.4217193478 
H 7.8232506137 6.5834412370 4.2186698220 
H 9.4625358956 8.1462074887 0.7786049453 
H 3.5402540053 11.7267265909 4.4917411578 
N 6.5362386264 8.2943242007 1.4052672271 
N 6.7609802040 11.4543061431 3.7103262813 
H 6.8910519719 8.3400980328 0.3867439007 
H 6.4336840755 11.5438429336 4.7174193792 
H 7.3092607517 8.6426815837 2.0893029063 
H 5.9198529668 11.7141321724 3.1518484881 
H 6.3171063276 7.3167750687 1.6773595850 
H 6.8693557046 10.4502452309 3.4141404833 
O 6.1604698619 8.8595913381 8.1330309752 
O 2.7789637395 12.1074167038 7.2466590832 
O 3.1890972746 8.7404206216 8.8210672344 
O 5.8307924358 11.9176537423 6.1083459029 
C 2.3646814549 8.8610730344 7.8456348113 
C 6.6367823037 12.0548164853 7.1004474093 
C 2.8627483734 8.6401415330 6.4507765007 
C 6.1516855196 12.1180002488 8.5857950295 
H 2.8655424293 9.5252963173 5.8203147262 
H 5.9562603615 6.7963292443 8.9244155511 
H 7.1370135572 8.3837551558 5.8234897897 
H 1.6172450495 11.8916182217 9.4244351337 
N 4.2510184273 8.0524901979 6.3459994054 
N 4.8118828099 11.3699552896 8.8018051825 
H 4.6829593567 8.2405597922 5.3887177620 
H 4.5952905619 11.6043278932 9.8179313360 
H 4.9037373968 8.4253484876 7.0683792680 
H 4.0288116086 11.7107983557 8.1697558763 
H 4.2014874367 6.9788953952 6.4164328972 
H 4.8965670451 10.3236660329 8.8324445452 
O 13.7663344617 2.7299725098 3.1519596153 
O 9.6368468814 6.0081726496 2.0212348367 
O 10.4384974959 2.3136740598 3.9190126212 
O 13.1558755872 5.0634377988 1.4107653787 
C 9.6163148042 2.4460212898 2.9675466358 
C 13.8284069530 5.5988540475 2.3339045061 
C 10.2560900982 2.6833943284 1.6090428022 
C 13.1894254248 5.8052331746 3.7196821351 
H 10.4612521176 3.7634292183 1.5898283762 
H 12.6287092118 0.3773880469 3.8119177296 
H 14.8279698586 2.2104950798 0.8686656213 
H 8.7343350833 5.0020426543 4.1706681538 
N 11.5184953434 1.8645084109 1.4393356584 
N 11.9255384833 5.0703382701 3.8008579251 
H 12.0039625516 1.9283218953 0.4329093239 
H 11.5219879132 5.1237851722 4.8085489932 
H 12.2173797362 2.1419825014 2.1595353107 
H 11.2311520972 5.5114339660 3.1916267419 
H 11.3200009573 0.8322211842 1.6232988372 
H 12.0669346443 4.0957895730 3.5277760057 
O 11.5654333654 2.3217387211 8.1191136136 
O 7.5997261437 5.9464705824 6.9559291026 
O 8.3480886092 2.3740849346 8.8862089537 
O 10.5852912648 5.2862372959 6.2439740318 
C 7.6685191861 2.4797827983 7.8426714187 
C 11.4223438373 5.5355115308 7.1773368636 
C 8.2290237282 2.4636164333 6.4378645758 
C 10.8403017811 5.6495492280 8.5876471499 
H 8.3722720095 3.5539173618 6.1811077746 
H 11.1264808373 0.4140759056 8.7247569751 
H 12.7470861624 2.0640664432 5.7816847871 
H 6.6345068415 5.2232281609 9.2243532158 
N 9.5056109237 1.7520000360 6.2441327850 
N 9.5496384708 4.9913850245 8.8303278362 
H 9.7734804471 1.9380957991 5.1782269276 
H 9.1806431751 5.2840200432 9.8558204271 
H 10.2625460606 2.1461788770 6.9370374748 
H 8.8413347230 5.4044872440 8.1067837837 
H 9.4153332850 0.7538712007 6.3903973766 
H 9.6623003071 4.0105761606 8.6699342121 
O 13.4312594276 8.9820429535 3.0950783528 
O 9.7951767143 12.4364591172 2.0607008759 
O 10.5719559981 8.7285141335 3.7859298349 
O 12.7693116069 11.7114862861 1.2935526181 
C 9.6402865335 8.8802292508 2.8941497513 
C 13.5004758118 11.9621575490 2.2878978360 
C 10.1064387722 8.7644452687 1.4194703445 
C 12.8539799667 12.1520263459 3.6228003643 
H 10.0575427944 9.7136305003 0.8975110732 
H 12.9625671382 6.8564966975 3.9327077284 
H 14.4071151925 8.5076884675 0.8948546034 
H 8.6491375462 11.6998973044 4.4100732330 
N 11.4767432585 8.2428881721 1.3434381573 
N 11.5770752649 11.3924453227 3.7376582862 
H 11.8689694354 8.3566083629 0.3794306711 
H 11.2468157438 11.5072767857 4.6910875193 
H 12.0615370363 8.6692462816 2.0500749968 
H 10.7864315371 11.6877262276 3.0752924154 
H 11.5367519585 7.2477703554 1.4291807470 
H 11.7272028504 10.4135732475 3.5593361369 
O 11.3452956298 9.0571332052 8.0864104596 
O 7.8647381100 12.2567505235 6.9650838690 
O 8.3119458031 8.7530150402 8.8634543320 
O 10.8852818473 11.7161959636 6.1734347045 
C 7.4132440812 8.8578979709 7.9493535521 
C 11.6986272790 12.0700038723 7.0381632471 
C 7.9198783793 8.7545496542 6.4843792560 
C 11.1762764165 12.1583764729 8.5364757099 
H 8.1483241977 9.7923191572 6.1441182849 
H 10.7680161689 6.7451048866 8.8205380571 
H 12.3172884008 7.9915289789 5.9922973322 
H 6.9453455576 11.6365018699 9.1525438632 
N 9.2231361082 8.0732339461 6.2411164746 
N 9.8273506911 11.6678291631 8.7437015206 
H 9.7345330016 8.3645460217 5.4031643009 
H 9.4333253115 11.6986272790 9.8153383675 
H 10.0300784952 8.2731571108 6.9457159817 
H 9.0972448406 12.0743960435 8.1205423922 
H 9.1216928295 7.0775869521 6.1392498542 
H 9.8861422834 10.6477870979 8.5684380157 
O 1.4392933242 2.5993927319 7.9075485494 
O 12.6997777163 5.6852686923 7.1120363910 
O 13.6694421074 2.4439627903 8.8948874606 
O 15.6489354427 5.6014999338 6.1832244836 
C 12.8149796034 2.3628557933 7.9773470286 
C 1.1834361243 5.6375898222 7.1043104032 
C 13.4067585210 2.4493021887 6.4967090859 
C 0.7121984923 5.6101255229 8.5697609588 
H 13.5489484478 3.5206003622 6.2654586281 
H 15.8299669796 0.3014034857 8.6523126097 
H 2.4287171938 1.8202109834 5.7971367627 
H 11.5917334747 5.1342893406 9.1790027256 
N 14.7238277760 1.7592021383 6.4351128541 
N 14.7428252393 4.9506807106 8.9084343982 
H 15.0705447096 1.9532778944 5.4875151543 
H 14.5511572397 5.2216935469 9.8773579411 
H 15.3900090148 2.1090147588 7.1928417570 
H 13.9221771615 5.2649008692 8.3496232233 
H 14.6264062445 0.6976143673 6.5279834613 
H 14.7348875805 3.8867963103 8.8746728897 
O 1.1364875188 9.1145489367 7.9023096947 
O 12.9995037102 12.2365888703 6.9182516824 
O 13.3495015426 8.5329302223 8.9075877146 
O 16.0088288897 11.8069498618 6.2521233614 
C 12.5316581043 8.7319537857 7.9728490220 
C 1.5178443951 11.9274964392 7.2815847816 
C 13.0226816737 8.6362256213 6.5048584155 
C 0.8716554728 12.1216515718 8.6473383435 
H 13.0986715266 9.6834673971 6.0560102729 
H 15.9425229804 6.6740892998 8.8753608201 
H 2.2933536535 7.8955891436 5.8864618824 
H 11.8378008954 11.7397443512 9.2931991759 
N 14.4525715182 8.1481654446 6.3307061829 
N 14.8967099833 11.3886881642 8.8158283796 
H 14.8413580430 8.3330599754 5.3219885109 
H 14.5956081286 11.4633021563 9.8105228546 
H 15.1157893643 8.7385155835 6.9201567205 
H 14.0746860447 11.8304982494 8.1901821181 
H 14.5700488675 7.1429932601 6.5097268462 
H 14.9608462658 10.3940995247 8.5908222133 

