&CONTROL
  calculation = 'scf',
  restart_mode = 'from_scratch',
  prefix ='glycine_alpha_npt_fep_0',
  pseudo_dir = '../../pseudo_nc_sg15/',
  outdir = './',
  tstress = .true.
  tprnfor = .true.
  disk_io = 'low'
/
&SYSTEM
  ibrav = 0,
  nat = 240,
  ntyp = 4,
  ecutwfc = 100.0D0,
  input_dft = 'pbe',
  vdw_corr = 'ts',
  nosym = .true.,
/
&ELECTRONS
  conv_thr = 1.D-14,
  mixing_beta = 0.5D0,
  electron_maxstep = 300,
/
&IONS
/
ATOMIC_SPECIES
  H     1.00794         H_ONCV_PBE-1.0.upf
  C     12.0107         C_ONCV_PBE-1.0.upf
  N     14.0067         N_ONCV_PBE-1.0.upf
  O     15.9994         O_ONCV_PBE-1.0.upf

K_POINTS automatic
2 2 2 0 0 0

CELL_PARAMETERS angstrom
15.27069012866726 0.00000000000000 0.00000000000000
0.00125415008012 12.57325143609977 0.00000000000000
0.91270904374755 -0.00346611098091 10.08304384601085

ATOMIC_POSITIONS angstrom
O 14.3312840927 10.7953746327 4.3834662009 
O 4.0104121157 1.5753712538 0.4277392621 
O 0.4517586175 4.4869203531 2.9714784227 
O 2.7870813185 8.1949976311 2.1053475604 
O 2.2240790598 11.4627729791 3.9958279907 
O 1.1356249599 1.3728762877 1.4223543605 
O 2.4210652907 5.2072840504 3.7572907622 
O 0.8985958865 7.3540291470 1.3203713211 
C 2.9110516727 10.8487156994 4.7713742915 
C 0.3245867410 1.6164883260 0.3830502435 
C 1.6983044205 4.8095914724 2.8168739977 
C 1.5728947043 7.8355804436 2.2724141097 
C 4.3955631928 10.6191586087 0.8245798647 
C 13.8621684615 1.7516507790 3.7805216434 
C 2.2923693838 4.4149363719 1.4343508087 
C 0.8628446716 8.1048258279 3.7201901452 
N 3.1339570053 11.3112166150 1.1671321733 
N 15.0827687040 0.9947050585 3.5802545135 
N 3.5049208404 5.1708607803 1.2459954587 
N 14.9744461211 7.2597297612 3.8455099014 
H 4.2070596732 9.5330752229 0.9165879130 
H 14.0692355190 2.7582993680 3.5312632838 
H 2.4243938156 3.3021983280 1.4379068798 
H 0.6020872904 9.1782089597 3.6737336746 
H 15.0486367714 10.8138429186 1.9066203364 
H 3.0490187650 1.3281608102 3.0495161916 
H 1.5787103622 4.6146266986 0.6665834135 
H 1.6893772003 7.9611012870 4.4321505078 
H 2.8844605159 11.1770172646 2.1950536877 
H 15.6024736802 1.2330411997 2.5508301357 
H 3.9143294026 5.1258807142 0.1915039546 
H 14.5241692000 7.2282437149 4.8634087987 
H 2.4021683712 10.9834442269 0.5053166468 
H 0.4032753979 1.3048135099 4.3242618503 
H 4.2651845022 4.8976624420 1.8372081566 
H 14.1699379495 7.5368598865 3.2706911146 
H 3.2628698749 12.3461285608 1.0284824423 
H 15.0817632672 -0.0439746294 3.6263299766 
H 3.2868680631 6.1787793947 1.4714408421 
H 15.1901387678 6.2030157127 3.5661731069 
O 4.0794327043 10.3963749869 4.6291261552 
O 9.1759334976 1.9133885134 0.3324291478 
O 5.7005619148 4.4968477183 2.8243618557 
O 7.7100066824 8.1645170216 1.9073929351 
O 7.1528888747 11.2058574247 3.6607053307 
O 6.1609990391 1.3319338439 1.0999848722 
O 7.6774622816 5.3239993844 3.6474229817 
O 5.6505546648 7.5148990307 1.1675925575 
C 7.9773470286 10.8741162073 4.4917358660 
C 5.2456229421 1.5721538561 0.2031405623 
C 6.8940153644 4.8898517858 2.6819390909 
C 6.4589258303 7.9828504720 2.0336546267 
C 9.4994724676 10.6912854678 0.7509289752 
C 3.7487763002 1.6971084799 3.8569612970 
C 7.5268055188 4.6120178547 1.2492922330 
C 5.9195883781 8.1511288372 3.4435786136 
N 8.1800748327 11.4634079918 1.1195115127 
N 4.9800976738 0.9623670368 3.6318704624 
N 8.8677406677 5.1956421509 1.0787701563 
N 4.7038618581 7.3422814121 3.6609646275 
H 9.3531549582 9.5800661626 0.8063867509 
H 3.8869550635 2.7803184333 3.8067741267 
H 7.6760864207 3.4489603463 1.1352439523 
H 5.7429490124 9.2028686195 3.5619926067 
H 5.1824550538 10.7884424107 1.5250253303 
H 8.1851549343 1.7081312420 2.8400995871 
H 6.9940827822 4.9223697277 0.3567183835 
H 6.7728337744 7.8956949791 4.1173376706 
H 7.9283981331 11.2642256753 2.1494491924 
H 5.3731070331 1.0409551500 2.6271745374 
H 9.3497682239 5.1433488551 0.0508645172 
H 4.4946463409 7.2988359599 4.6650943328 
H 7.4170012396 11.2259132424 0.4584209590 
H 5.7821081289 1.3356327929 4.3464661277 
H 9.5916022266 4.7969600115 1.7742836899 
H 3.9566159565 7.5807815982 2.9567514199 
H 8.3864539598 12.4954094628 1.1651689257 
H 4.8593870516 -0.0636758984 3.8374081977 
H 8.8983271127 6.1835949077 1.2334222073 
H 5.0319464607 6.3706061475 3.4178129734 
O 1.9821762640 10.7130346527 9.6049374933 
O 6.9195746256 1.8610687588 5.0434931083 
O 3.6090417559 4.3576317676 8.1728251044 
O 5.5824495528 8.1394340200 7.0495934756 
O 4.9855270324 11.2955000507 8.6068562840 
O 3.9304640169 1.1473462360 6.2665169826 
O 5.5260392581 5.1254520806 8.9173245760 
O 3.7437861588 7.0975898521 6.2577855580 
C 5.8530178802 10.9553978328 9.5328635520 
C 3.1897375791 1.5226122821 5.3006097500 
C 4.8025269562 4.6962893316 7.9467076659 
C 4.4008602571 7.6928613395 7.1574927167 
C 7.4110215367 10.6065112725 5.9289548155 
C 1.8381448003 1.8587774213 9.1141255949 
C 5.3128337445 4.4147987858 6.5762444264 
C 3.8742230589 7.9052730873 8.5717718324 
N 6.1051179216 11.3901698605 6.1390381833 
N 2.9781090137 1.0358274225 8.7960371505 
N 6.6622357294 5.0641204374 6.3350454363 
N 2.5758655114 7.2530621279 8.8109070312 
H 7.2413673107 9.5773144409 6.1805256796 
H 2.1413421969 2.9378968345 8.8673702437 
H 5.4887851797 3.3199045988 6.4761240909 
H 3.8523627467 8.9934202644 8.7318479502 
H 3.0735620058 10.5681459219 6.9383075002 
H 5.8712744953 1.5345452290 8.1284800509 
H 4.5841302137 4.7414651934 5.9292723218 
H 4.5970209715 7.6403669564 9.2823510423 
H 5.7843835910 11.2841756576 7.1649541159 
H 3.2418139122 0.9896514158 7.7050853340 
H 7.0142444354 5.0158753476 5.3286032265 
H 2.3446573878 7.2621639766 9.8725424281 
H 5.4205742323 11.0500147249 5.4287235620 
H 3.8053718070 1.3266314879 9.3614101233 
H 7.4074760491 4.6378681634 6.9601625206 
H 1.8581953263 7.8351041841 8.3786750542 
H 6.3546249945 12.4110586093 5.9763690970 
H 2.7673482989 0.0381536797 9.0011991699 
H 6.5861400410 6.0772302806 6.4349011832 
H 2.4875458285 6.2092600042 8.6719450856 
O 9.2000639801 10.7009164937 4.2373762378 
O 14.3308607509 1.7451789412 0.4781486869 
O 10.7206548051 4.6036886048 3.0261106819 
O 12.9107077678 7.7872136430 2.0208114949 
O 12.2708795560 11.2659190425 3.7300063832 
O 11.1908817086 1.1125316647 0.9374692472 
O 12.7254957306 5.3053194275 3.7548142126 
O 10.7444148636 7.7974796817 1.2240028522 
C 13.0855479309 11.0424474902 4.6393181090 
C 10.4030426203 1.6236904284 0.1039886212 
C 11.9527911117 4.9369432692 2.8113705543 
C 11.6827519615 7.9429505074 2.0817356716 
C 14.4765961653 10.4868113788 1.0388278575 
C 8.9314536085 1.8600844891 3.6954034829 
C 12.4578378781 4.7082910717 1.4771718317 
C 11.1127751466 8.2223031771 3.4547389618 
N 13.1684700058 11.2704699668 1.1729107889 
N 10.1270766849 1.0526764261 3.4978139899 
N 13.8203634588 5.1836351191 1.1690530867 
N 9.7133659116 7.5999907323 3.6819465055 
H 14.2738683612 9.3437885209 1.0330651173 
H 9.1724409277 2.9215293822 3.7490779313 
H 12.5178994959 3.6656478462 1.2816620053 
H 10.9937102656 9.3464344072 3.6564560374 
H 10.2001031453 10.8746453846 1.5739583505 
H 13.1121126288 1.5224006112 3.0154160097 
H 11.8382242372 5.1156040920 0.6521950841 
H 11.7682670049 7.8339929118 4.2548549623 
H 12.8571021125 11.3296849010 2.1694573842 
H 10.4964953224 1.0516498222 2.5034052707 
H 14.1620002908 4.9198402605 0.1882177639 
H 9.3205576397 7.8081690621 4.6084617836 
H 12.4334957246 10.9411629648 0.4865520216 
H 10.8288715525 1.2760209758 4.2128118299 
H 14.5667679685 4.7494981040 1.7875289965 
H 9.0268113488 7.9869780545 2.9140150653 
H 13.2992826217 12.2575442893 0.9244409034 
H 9.9978516007 0.0570400157 3.6777236710 
H 13.8728578419 6.2549280008 1.2474348208 
H 9.7371788878 6.6040262320 3.5486732153 
O 7.1425699183 10.8805721697 9.4290918935 
O 12.0229600149 1.7930271481 5.3468069238 
O 8.7167134809 4.4763262246 8.1364177096 
O 10.6491629588 8.3334833172 6.8447489626 
O 10.3857385242 11.7809672589 8.6203503038 
O 8.7722241743 1.1667776245 6.0330439803 
O 10.8390317557 4.9712657055 8.8328678870 
O 8.6877145676 7.6212107400 6.1357572844 
C 11.0401191103 11.0884329931 9.4798929094 
C 8.1511817549 1.5444461354 5.0263636407 
C 9.9538240536 4.6734077074 7.9549628310 
C 9.4435913501 8.0260313355 7.0481117794 
C 12.5727751766 11.0287947172 6.0166924033 
C 6.6818152876 1.8283073953 8.8533470466 
C 10.5154927857 4.6057206455 6.5138544288 
C 8.9036718030 8.1916108967 8.5407091279 
N 11.2741212898 11.7819726957 6.1171302452 
N 7.9249055632 1.0715151362 8.7042778155 
N 11.8275348568 5.2916031532 6.2740312995 
N 7.7128113218 7.3966279155 8.7864590423 
H 12.3116791219 9.9316515268 6.3168946567 
H 6.9548178304 2.9157613502 8.7768809341 
H 10.6137080831 3.5335704966 6.1779856288 
H 8.5845779218 9.2979617712 8.7021081888 
H 8.0944010361 11.1166381405 6.5642850206 
H 11.1434145093 1.6641407373 7.9530048751 
H 9.7450107111 5.0544735362 5.8538116461 
H 9.5042350628 7.9846496746 9.3942720305 
H 10.8965533227 11.5984540257 7.0566844508 
H 8.2850106812 1.1561199947 7.7331846459 
H 12.1293246419 5.1965470440 5.1722631000 
H 7.4141436825 7.4014963462 9.7904670368 
H 10.4881343219 11.5871296326 5.4056514339 
H 8.6702517184 1.4243228998 9.4625888133 
H 12.5802365758 4.8978794047 6.9746619772 
H 6.9140711822 7.6679900088 8.2017710999 
H 11.4722452518 12.7725925058 5.9514977663 
H 7.7783763830 0.0815726729 8.9678080855 
H 11.7473645036 6.3395434429 6.4452730573 
H 7.9220480061 6.3865343827 8.6109838665 
O 12.2801401579 10.7667461435 9.4644938514 
O 2.0359512560 1.9358520876 5.4170816625 
O 13.7894065897 4.3594944715 8.0707997308 
O 15.7150296811 8.2796130732 7.2670853250 
O 15.2852848372 11.5078059630 8.9689722755 
O 14.0820416084 1.3820628047 6.1460762407 
O 15.7990101105 4.9784254737 8.8104307717 
O 13.9151920218 7.2714774962 6.4224655179 
C 16.0410028665 11.0024416902 9.8174021588 
C 13.2525562706 1.5954164880 5.2236197520 
C 15.0192145164 4.5764095177 7.8768562690 
C 14.5403620238 7.8833122314 7.2986772068 
C 2.2977934506 10.5194616150 6.1607873682 
C 11.8964337346 1.8588515061 8.7290962285 
C 15.6121576239 4.3855987852 6.4831092306 
C 13.9531340306 8.1829323898 8.6694050348 
N 1.0838185072 11.2217327422 6.5301001703 
N 13.1480966817 1.0564071257 8.6952288846 
N 1.5478381615 5.2527350843 6.2383647529 
N 12.4926048234 7.6595231728 8.7784684658 
H 2.0883768461 9.3811484347 6.1333759867 
H 12.2329375473 2.9136605165 8.7554492555 
H 15.6882533123 3.2927736812 6.4381820822 
H 13.8642322527 9.2574797116 8.7764575923 
H 13.2539850492 11.5342119077 6.7109729540 
H 0.9303571050 1.6102863687 8.4606975278 
H 14.7627752215 4.6500551154 5.7841190024 
H 14.5121039587 7.8044119036 9.5339748242 
H 0.8050214736 11.0298530717 7.5233658667 
H 13.4787266269 1.1462243802 7.7356717790 
H 1.8505169644 5.1951711831 5.2260963016 
H 12.2009223237 7.5611491223 9.7761263334 
H 15.6038495411 10.9673572386 5.8587859122 
H 13.8759270699 1.4421879238 9.3147366900 
H 2.3493617735 4.9304132219 6.7845815094 
H 11.8367954587 8.1761060033 8.2220915062 
H 1.1271634157 12.2811985124 6.3967475036 
H 12.9877030575 0.0835570876 8.9802966686 
H 1.3869365272 6.2585793239 6.5433296015 
H 12.4319611106 6.7108671186 8.4107961132 

