&CONTROL
  calculation = 'scf',
  restart_mode = 'from_scratch',
  prefix ='succinic_alpha_npt_fep_0',
  pseudo_dir = '../../pseudo_nc_sg15/',
  outdir = './',
  tstress = .true.
  tprnfor = .true.
  disk_io = 'low'
/
&SYSTEM
  ibrav = 0,
  nat = 336,
  ntyp = 3,
  ecutwfc = 100.0D0,
  input_dft = 'pbe',
  vdw_corr = 'ts',
  nosym = .true.,
/
&ELECTRONS
  conv_thr = 1.D-14,
  mixing_beta = 0.5D0,
  electron_maxstep = 300,
/
&IONS
/
ATOMIC_SPECIES
  H     1.00794         H_ONCV_PBE-1.0.upf
  C     12.0107         C_ONCV_PBE-1.0.upf
  O     15.9994         O_ONCV_PBE-1.0.upf

K_POINTS automatic
2 2 2 0 0 0

CELL_PARAMETERS angstrom
11.28889591861117 0.00000000000000 0.00000000000000
-0.38334658271630 17.28229393944844 0.00000000000000
-3.50902725580476 -2.67879577808543 15.80814900160811

ATOMIC_POSITIONS angstrom
O 1.5925218884 1.5226387409 2.5217359706 
O 10.1744380487 4.8428978885 2.7385081389 
O 2.9009496790 1.4758383050 4.3328186464 
O 8.8685344336 5.1597215992 0.9320769311 
C 1.8060396166 1.6571503059 3.7977886970 
C 9.9563641044 4.8532856379 1.4249632043 
C 0.5785336110 2.0727131995 4.5576713513 
C -0.1041526661 4.5071878417 0.5854711247 
H 2.4005385052 1.1880505499 1.9733548792 
H 9.3423597424 5.1519426937 3.2560805308 
H -0.2321341838 1.4424683877 4.2077211447 
H 0.6657843558 5.2876872416 0.6683773243 
H 0.2941220068 3.0648305812 4.2203314386 
H 0.2798448046 3.5954630677 1.0740604787 
O 4.0681665206 3.8367731850 2.3754078777 
O 7.8560066854 2.6297145882 2.8296483365 
O 9.5853579351 1.5236918037 1.2717346401 
O 2.1674676777 4.8763948083 3.8483251243 
C 4.2542040743 4.5469131778 1.2700306894 
C 7.5997261437 1.8529988057 3.8733499164 
C 5.2751192819 3.8797317940 0.3920515485 
C 6.5934956047 2.4646959549 4.7638440993 
H 3.3402620476 4.2754875832 2.9520417424 
H 8.5385924189 2.1515606096 2.1948843510 
H 10.3316566094 7.2992593017 0.0377144625 
H 1.4951321075 16.2236219351 5.2918783254 
H 6.0542639880 3.4792398685 1.0896447487 
H 5.8774129514 2.9555925217 4.0795914574 
O 6.9228555245 6.0947460476 2.3202993590 
O 4.6049745056 9.3674956617 2.8153870096 
O 8.1525576157 5.5723951851 4.1347952281 
O 3.4235968807 9.3687127694 0.9339925527 
C 7.1071150426 6.0185974414 3.6174662577 
C 4.5335514523 9.2433506791 1.5809329067 
C 5.9743053057 6.3907678007 4.4652822954 
C 5.7533208865 8.8163046391 0.7592476415 
H 7.7680574266 5.8001530730 1.8082621611 
H 3.4351064859 9.5094209999 3.6697913040 
H 5.0145100703 5.9316007017 4.1426535102 
H 6.5494151399 9.5981640245 0.8954949078 
H 5.8116891371 7.4620871412 4.2924265470 
H 6.0856971166 7.9175499994 1.2905627666 
O 9.1696892060 8.0525431157 2.1362144694 
O 2.0348082331 6.7448402980 2.5659751886 
O 3.6806341459 5.6244133087 0.9684366998 
O 7.7836681555 9.2916645619 3.8220303068 
C 9.7449577934 8.9088577400 1.3119256522 
C 1.7467453059 6.0416695695 3.6484760445 
C 10.8036827155 8.2278595383 0.4784503179 
C 0.8470434389 6.7802422559 4.6282212621 
H 8.5672738258 8.5654217054 2.7749155336 
H 2.7155788887 6.2433390191 1.9626549152 
H 4.5402667116 11.6574043713 0.1114129780 
H 7.1027757892 3.2770835758 5.2424372950 
H 0.2959423765 7.8426185010 1.1960464182 
H 0.0722909040 7.2700487176 4.0252184951 
O 7.9549628310 3.5938279100 7.6608461160 
O 5.2362617965 6.5438058611 8.0459284001 
O -2.1198787677 3.1998289892 9.5194753676 
O 4.0144391545 6.8262277588 6.2023807000 
C 8.1227649366 3.5808207332 8.9473818437 
C 5.1442907906 6.5733339516 6.8151679543 
C 6.9159762203 4.0721882677 9.7074391264 
C 6.2792701543 6.2047619976 5.9221813467 
H 8.7898457767 3.2353844086 7.1072208781 
H 4.1495222309 7.1950643014 8.9231984434 
H 6.0787648946 3.4263009765 9.4420567361 
H 7.1470150072 6.8334774872 6.2123292323 
H 6.6429736775 5.0590403358 9.3501386479 
H 6.6370998101 5.1889163081 6.1789381479 
O -0.9778719302 5.9070468773 7.6431186781 
O 2.7279986787 4.3197903025 7.8953774727 
O 4.5678474298 3.3249053238 6.3752629073 
O 8.4224909304 6.8842785031 9.0585619837 
C -0.6284932351 6.6544039061 6.6251404042 
C 2.5067073367 3.8048267544 9.0226308485 
C 0.3430338599 5.9164662324 5.7579776463 
C 1.5126531662 4.3722529350 9.9224967604 
H -1.7296158383 6.3569533744 8.2678653383 
H 3.8325662258 3.7146814101 6.9982103648 
H 5.4750794890 9.2990730434 5.6000182375 
H 7.7796993261 1.0141205717 10.2766750932 
H 1.1499921222 5.4630671654 6.3912440602 
H 0.6724943233 4.7463124570 9.3338929064 
O -2.8148260817 1.2124826635 12.8293732246 
O 6.0962277439 4.4640016864 13.3070615273 
O -1.6367028970 0.9764537352 14.7487520244 
O 4.8614296757 4.8308908567 11.4561053457 
C -2.7377884578 1.2409947337 14.0705055444 
C 5.9274202014 4.4933498567 12.0177740778 
C 7.3575217168 1.6694589687 14.9012079899 
C 7.1379660762 4.0514656867 11.2346975848 
H -1.5132035106 0.7114047265 12.1005373996 
H 5.1838467900 4.7042746163 13.8649731009 
H 6.5470867600 0.9523232526 14.7681728295 
H 7.9326315510 4.7618914352 11.5015087537 
H 6.9467743362 2.6149240841 14.4599799997 
H 7.4481697796 3.0855690376 11.6560814281 
O -0.4935159942 3.4161460651 12.8339770667 
O 3.5955477360 2.1262341865 13.1559285050 
O 5.3908873887 1.0216613475 11.7546671496 
O -2.0289184904 4.5687099887 14.6853036723 
C -0.0280305189 4.0669070788 11.8831513857 
C 3.2636583490 1.3939163751 14.1797277286 
C 0.9788932423 3.4406258046 10.9783641254 
C 2.4164667404 2.1411464013 15.1651616017 
H -1.4451248575 4.1368484358 13.9628708920 
H 4.3149007048 1.6245635709 12.5601278403 
H 5.9713419131 7.1756434964 10.5398878568 
H -2.6012448522 -1.3058506973 15.5937951734 
H 1.7297640080 3.0158975610 11.6102017607 
H 1.6660669425 2.6444839253 14.5731180955 
O 1.5509338484 10.3636189152 2.4078411513 
O 10.3997617213 13.5023279322 2.9352985742 
O 2.6308787782 9.6836790680 4.2599509392 
O 9.1408490459 13.5841916526 1.0602754114 
C 1.6031054334 10.1820582011 3.6404113832 
C 10.2892165940 13.4236921930 1.7181326920 
C 0.4381587622 10.4687664346 4.4792366994 
C 0.2021774598 13.2244569587 0.7883047643 
H 2.7433554025 9.8412151350 1.5712965890 
H 9.1344989190 13.9605425121 3.8383130908 
H -0.3403720983 9.6918283976 4.2677086777 
H 0.8131284690 14.0986048563 0.7734878013 
H -0.0364708960 11.3920219809 4.1290166125 
H 0.8026190089 12.4159270400 1.2693004248 
O 3.9661940648 12.3784083730 2.6432244834 
O 8.0011070871 11.3605888523 3.0344716825 
O 9.4301502480 10.0960139804 1.1813035400 
O 2.3274538354 13.6189585978 4.1878558308 
C 4.2615490545 13.0906280324 1.5796575895 
C 7.4530382103 10.4838479862 3.8552520545 
C 5.1653044192 12.4176733249 0.5895722484 
C 6.4884010031 11.1104996844 4.8093745098 
H 3.3125067008 12.9140415845 3.2397289538 
H 8.5717189147 10.8907852906 2.3591250937 
H 10.1218378301 16.0976777499 0.0587968841 
H 1.4698109762 7.6030070426 5.0244109767 
H 5.9396971136 11.8404467817 1.1329473230 
H 5.6581218994 11.5207708056 4.2002756208 
O 2.1321292210 7.6386206715 7.7323908800 
O -0.2748387878 11.0515493389 8.1028678720 
O 3.3869037303 7.4518211026 9.5778965359 
O 9.7182872601 11.3295261478 6.3196463784 
C 2.2758908042 7.7408047983 8.9539965593 
C -0.4909018586 11.0037646333 6.7959588202 
C 1.0973072353 8.0569352868 9.8595246678 
C 0.6780189338 10.5282459574 5.9927206740 
H 3.2813910786 7.1264300122 6.8954441430 
H -1.1222791097 11.3110049441 8.6112484552 
H 0.3950572752 7.2025786183 9.7556471738 
H 1.4954496139 11.2241140398 6.2334434045 
H 0.5759988520 8.9402908686 9.4080835567 
H 0.9529900159 9.5521785216 6.3896565284 
O 4.6320630889 10.1627432315 7.9157507968 
O 8.6098196766 8.9024546953 8.0293122344 
O -1.0773784201 7.7913412256 6.3989171303 
O 2.8296747953 11.2476095096 9.6144626838 
C 5.0000264890 10.7580147189 6.8952853898 
C 8.1788577250 8.1032912138 8.9756928265 
C 6.0321443790 10.1788831376 5.9839892494 
C 7.2873528136 8.8110657844 9.9806533401 
H 3.4884316773 10.7956392213 9.0435333499 
H 9.2764771749 8.4647721926 7.3756195788 
H -0.2786276969 13.7673928162 5.4164466498 
H 2.0166151193 5.2649749541 10.3375304768 
H 6.8480827792 9.8024793604 6.6169381569 
H 6.5503147412 9.3936370178 9.4550744964 
O 2.9330548627 5.3428380945 13.0150615213 
O 0.4244213208 8.9506098249 13.3405055294 
O 4.2547544186 5.1135614678 14.8429455748 
O -0.8788999093 8.7955608910 11.4876972275 
C 3.1711264152 5.4242784731 14.3294848901 
C 0.3096639426 8.6982451949 12.1449882885 
C 1.9438691229 5.8050215037 15.1284367006 
C 1.4679165216 8.2872861433 11.3049723234 
H 3.7658951842 5.0941353710 12.4438146810 
H -0.7164795363 9.1893745997 14.1881945646 
H 1.2606325014 4.9554856400 15.0432391635 
H 2.1852956592 9.1396848560 11.3923924050 
H 1.4583542887 6.6434499370 14.6981097617 
H 1.9119861937 7.4078993909 11.7585830613 
O 5.4318457077 7.8643147682 13.0441133523 
O -2.0201817740 6.3665844004 13.2893340894 
O -0.3991319401 5.3213005804 11.6604206816 
O 3.5710150788 8.8088961577 14.5217879023 
C 5.7971896805 8.5927801692 12.0094130773 
C -2.4224781940 5.7777688754 14.3019147554 
C 6.6766293506 7.8856406113 10.9918052275 
C -3.4202736476 6.4188671126 15.1986585215 
H 4.6116897649 8.2935304349 13.5486309414 
H -1.0234235078 5.7046894973 12.4282039522 
H 0.1750094998 11.3701140428 10.5859791952 
H 3.0606765398 2.8908741442 15.6412623726 
H 7.4416079817 7.2536971406 11.4502314783 
H 7.0699138820 6.8367054684 14.5258625672 
O 7.1854332755 14.2718574876 2.5379182109 
O 4.9684240237 0.5891065724 2.8316645018 
O 8.3570846225 14.2862511088 4.4632079206 
O 3.5307288148 0.6760027685 1.0780081410 
C 7.2741763001 14.4844279886 3.7688903275 
C 4.6332801966 0.4298189287 1.5702911522 
C 6.0929997626 14.9905860272 4.4824276382 
C 5.8086728268 0.0182830740 0.7333285399 
H 8.3775108643 13.8811130070 1.7063690818 
H 4.1787910245 0.9136774381 3.3558727764 
H 5.1924512121 14.4382308147 4.1240635134 
H 6.5972527632 0.7914322018 0.7714028429 
H 5.9825604708 16.0558198295 4.2096050157 
H 6.2903828765 -0.8387723985 1.2336709206 
O 9.1477812679 16.8418067974 2.3451389390 
O 2.3511398091 15.4667397159 2.9292500783 
O 3.8841504241 14.2598451641 1.3719396440 
O 8.0999573972 0.7368581521 4.0326269766 
C 9.9862626189 0.3489447698 1.4141679884 
C 1.9094937688 14.7612935252 3.9207377391 
C 10.6258262421 16.9751065464 0.4719467295 
C 0.9159952345 15.4209129661 4.8242338069 
H 8.9683372628 0.0596911937 3.0184323200 
H 2.9685309055 14.8783475327 2.2763617720 
H 4.8090093775 3.0500824113 -0.0891610747 
H 6.9919660732 12.0124823053 5.1995474790 
H 0.0953259896 16.5720851536 1.1662643226 
H 0.1179800677 15.9334211318 4.2731380363 
O 7.8193347020 12.2210310592 7.7432919314 
O 5.2441412458 15.1274312638 8.0956710615 
O -2.2753775023 11.7464649023 9.5538718888 
O 3.9158322660 15.5898792617 6.3141429350 
C 7.9825329656 12.1732992713 9.0427395840 
C 5.0151715419 15.2164917948 6.7708229009 
C 6.7809831041 12.6626294735 9.8075065442 
C 6.1928025918 14.8366483655 5.9589062477 
H 8.6500371475 11.8669585619 7.2546496596 
H 4.3591822569 15.3928136542 8.5647866927 
H 5.8792650718 12.2154217803 9.3962299863 
H 7.0594890902 15.3992166989 6.3532491337 
H 6.7705583123 13.7496124606 9.5630266552 
H 6.4178616758 13.8036414577 6.2480486966 
O -0.9842538078 14.4692935192 7.8148896131 
O 2.6194115072 12.7575638719 7.9878776558 
O 4.5093945108 11.9149020206 6.4621538115 
O 8.3089824105 15.5456929614 9.2898653593 
C -0.5959911685 15.1889745779 6.7778609583 
C 2.3439694573 12.3599930048 9.1190469433 
C 0.3476853279 14.5165490476 5.8649243683 
C 1.4064843348 13.0613645306 10.0421437364 
H -1.7852059083 14.8307215803 8.3086119865 
H 3.7686045718 12.1969534943 7.0961081558 
H 5.4563466144 0.6862053059 5.2849619787 
H 7.9038972264 9.5800132449 10.4716769094 
H 1.1109123824 13.9656755314 6.4286039740 
H 0.6860518445 13.5033333689 9.3450056286 
O -2.6637459771 9.7339509066 13.0721597465 
O 5.9663676470 13.2144555087 13.3923119821 
O -1.4343243499 9.4952390496 14.9105744272 
O 4.6109436249 13.2317596047 11.6014174183 
C -2.5747595309 9.7958117270 14.3003272236 
C 5.7244278087 13.0327360414 12.0856146012 
C 7.5559102675 10.2382568249 15.1754276403 
C 6.9301052528 12.5537247956 11.3081473869 
H -1.5644966613 9.1780502066 12.1924025700 
H 5.0610353341 13.3881314818 13.8510557392 
H 6.8243756385 9.4283510453 15.1378560556 
H 7.8819892883 13.0106164324 11.6069208617 
H 7.1282292149 11.0356211037 14.5956610463 
H 7.0552027545 11.5012441651 11.6248599705 
O -0.6097709440 12.0782061197 12.9672238980 
O 3.5440746650 10.7430390027 13.3892427540 
O 5.3289207328 9.7171759878 11.8184330081 
O -2.3625806212 13.2551492392 14.4357436817 
C -0.1731785465 12.8667331384 12.0143344257 
C 3.1790534904 9.9746207195 14.3654160253 
C 0.7606499612 12.1756805689 11.0500676426 
C 2.2402348412 10.6272021029 15.3466693981 
H -1.3459199986 12.5592282390 13.5603257586 
H 4.2104093652 10.2764634223 12.7377197251 
H 6.2566213680 -1.6488686819 10.4272260205 
H -2.8550805950 7.2723770975 15.6393044168 
H 1.5491293540 11.6556051686 11.6412115474 
H 1.4318160497 11.1199719572 14.7691253485 
O 2.3291842450 -0.7355193337 7.6988410424 
O -0.1908636502 2.2623174078 8.1436674379 
O 3.5555260607 -1.2348615694 9.5572057055 
O 9.8230643554 2.6034726885 6.3022893646 
C 2.5312558693 -0.8334806260 9.0022046067 
C -0.3908185655 2.3169602505 6.8572904634 
C 1.3405488496 -0.3243274441 9.7538479712 
C 0.8168750440 2.0130537564 6.0689221978 
H 3.1823449729 -1.0416377887 7.1818348702 
H -1.0499987892 2.6448966835 8.6794594026 
H 0.4636492303 -0.8617651500 9.4511056670 
H 1.5476635330 2.7903092998 6.3293832398 
H 1.1336881712 0.7342810589 9.4812158525 
H 1.2326919427 1.0400820076 6.3914557311 
O 4.8115917624 1.6297230490 7.8534666346 
O 8.7722770920 0.1426926452 7.9997312262 
O -0.6814427106 -0.9861958883 6.5333810693 
O 3.0891674429 2.7154042602 9.4760828332 
C 5.0449271786 2.1621335710 6.7499733173 
C 8.3055427584 -0.5833702911 9.0089251578 
C 5.9975361869 1.5043715423 5.7725829384 
C 7.3120653912 0.0977125790 9.8785750488 
H 3.7545549158 2.3541137852 8.7850831815 
H 9.5012187525 -0.4011533971 7.4973832637 
H -0.1988224760 5.0102925277 5.4266597707 
H 1.9797102980 13.8855051782 10.5185090960 
H 6.7753738252 1.0041297053 6.3502328234 
H 6.5143836060 0.5225413663 9.2483249452 
O 2.6042611626 14.0939480965 13.0106693501 
O 0.4265803640 0.3168607532 13.2966896532 
O 3.8791602826 13.6782264497 14.8113536930 
O -0.7833516652 0.3888711932 11.4485381111 
C 2.8107090827 14.0266896682 14.3039785467 
C 0.3431979048 0.1504874261 12.0761952461 
C 1.5580248236 14.3300140673 15.0765773302 
C 1.4874854963 -0.3846218999 11.3004743168 
H 3.4557126480 13.8497857138 12.5085859763 
H -0.8327291943 0.8212777987 14.1394573399 
H 0.8672844687 13.4850767538 14.9755573934 
H 2.3179392285 0.2795378818 11.6475616744 
H 1.0146709161 15.1753747226 14.6019582556 
H 1.7616892714 -1.3876138741 11.6773014358 
O 5.3607242855 -1.0233441312 12.8084707233 
O -2.0277648840 -2.1937466199 13.1674116513 
O -0.5321565169 14.0351035864 11.8169513118 
O 3.6390196470 0.2250379169 14.3648339303 
C 5.7767634386 -0.1465979733 11.8638893338 
C -2.7379577945 14.4182279147 14.2321691940 
C 6.7607685331 -0.8007615967 10.9372999708 
C -3.2414487799 -2.0935469078 15.2112000223 
H 4.6511399288 -0.5842328500 13.4397262636 
H -1.7258798470 14.5581423794 12.6249520533 
H 0.4053973987 2.5783632280 10.5423220722 
H 2.8431688152 11.4050397412 15.8299669796 
H 7.5599320146 -1.1788534494 11.5751702268 
H 7.2410498043 -1.6173614685 14.6708571334 

