&CONTROL
  calculation = 'scf',
  restart_mode = 'from_scratch',
  prefix ='succinic_beta_npt_fep_0',
  pseudo_dir = '../../pseudo_nc_sg15/',
  outdir = './',
  tstress = .true.
  tprnfor = .true.
  disk_io = 'low'
/
&SYSTEM
  ibrav = 0,
  nat = 336,
  ntyp = 3,
  ecutwfc = 100.0D0,
  input_dft = 'pbe',
  vdw_corr = 'ts',
  nosym = .true.,
/
&ELECTRONS
  conv_thr = 1.D-14,
  mixing_beta = 0.5D0,
  electron_maxstep = 300,
/
&IONS
/
ATOMIC_SPECIES
  H     1.00794         H_ONCV_PBE-1.0.upf
  C     12.0107         C_ONCV_PBE-1.0.upf
  O     15.9994         O_ONCV_PBE-1.0.upf

K_POINTS automatic
2 2 2 0 0 0

CELL_PARAMETERS angstrom
11.18217674280653 0.00000000000000 0.00000000000000
-0.12666386631923 17.84081935867176 0.00000000000000
-0.28636956006565 -0.06196136408472 14.98151592918195

ATOMIC_POSITIONS angstrom
C 0.1082696651 8.3547562426 4.6828164789 
C 5.0595642213 0.5249067886 0.0826574863 
C 5.0909920581 3.8069064210 2.6857756260 
C 0.3883737666 4.9118549758 2.5206405737 
C 1.1785994443 8.6745380541 3.6415279472 
C 4.0785701454 0.2508141407 1.1679471063 
C 4.0552440122 4.0931542703 3.7773571635 
C 1.3343733511 4.6855787841 1.3774854215 
O 1.3370298209 0.7175325990 3.0744192730 
O 4.0328703981 8.3036906380 1.8824739785 
O 4.0619222291 5.0921509563 4.5169194113 
O 1.2652257599 3.6693626705 0.6512743157 
O 2.1353095763 7.7868432189 3.6599009813 
O 3.0504316683 1.0758702649 1.1445786389 
O 3.1511129317 3.1346502275 3.8641422323 
O 2.2177289328 5.6528830447 1.2505781337 
H 5.2143432749 7.5351136016 4.3707183210 
H 0.1235840547 1.4317102142 0.4162296570 
H 0.2480782943 2.9070405091 3.3794317475 
H 5.3121987318 5.8511657599 1.9728257020 
H 0.8528220545 8.1035558025 0.7412185727 
H 4.5842995504 0.8725709494 4.3358931662 
H 4.4706799033 3.4602053628 1.8542000381 
H 0.9085550023 5.3987192120 3.3491733924 
H 2.8486299244 7.9677160027 2.9442681286 
H 2.4494186077 0.9331299938 1.9863408889 
H 2.4805024793 3.4110289211 4.6301210084 
H 2.9280118035 5.5470475949 0.5309447010 
C 0.2463002588 8.2739508766 9.7280241214 
C 5.1107250777 0.5703684061 5.2630064147 
C 4.8729392809 3.7677949306 7.6521146914 
C 0.1612455995 4.9853047780 7.3010585044 
C 1.2370735303 8.5542031477 8.6610969520 
C 4.1099873986 0.3048643049 6.3621393115 
C 3.8806737295 4.0863384674 8.7375101468 
C 1.3195087621 4.7090266280 6.3207047329 
O 1.3405858920 0.7216390145 8.1474245964 
O 4.0323941386 8.1348301779 6.8402509559 
O 3.9030367601 5.1588960827 9.3840589096 
O 1.3783744393 3.6460682880 5.6627257415 
O 2.2034093965 7.6149135307 8.6001357329 
O 3.2151486706 1.2628762130 6.4815216989 
O 2.8949276419 3.2105712874 8.7728591870 
O 2.1610222988 5.6869620595 6.1971947630 
H 5.2209791576 7.2576659700 9.5729222698 
H -0.1352947473 1.4702396097 5.3510932596 
H -0.0073396884 2.9739073463 7.9425800833 
H 5.5187895298 5.8030635479 7.2318421202 
H 0.6809664511 8.0258196646 5.5594832602 
H 4.5038381497 1.0018013254 9.4600487625 
H 4.2932838141 3.5715230889 6.7575405519 
H 0.5705007004 5.4969874271 8.1737776234 
H 2.8687545352 7.8176942526 7.8300240825 
H 2.5384685552 1.0152371357 7.2233752842 
H 2.1911324843 3.4202101463 9.5082568099 
H 2.8530062202 5.5107989533 5.4679355961 
C 0.0747357029 8.3500465651 14.7799734821 
C 5.0124092367 0.5721676087 10.3434043443 
C 4.7880910008 3.8401652111 12.6754884806 
C 0.2969160626 4.9018111916 12.4662517964 
C 1.0914704102 8.5915101438 13.7081249643 
C 3.9401215017 0.2474803240 11.3417501422 
C 3.8001276605 4.1880992523 13.7697211961 
C 1.2317552989 4.6201195584 11.3074065388 
O 1.2528218452 0.6544070450 13.1895841780 
O 3.8083987009 8.0470925900 11.8714036508 
O 3.7960318286 5.2126393241 14.4691876838 
O 1.1574006037 3.6427238878 10.5556573389 
O 1.9826101893 7.6156014612 13.6384323206 
O 3.0181148137 1.1708205387 11.4286410465 
O 2.9140732748 3.2126244951 13.9344540737 
O 2.1181324828 5.5812324451 11.1201836281 
H 5.0296815821 7.4916152317 14.4354790930 
H -0.1153818074 1.4447279746 10.3606555226 
H 0.0412705336 2.8576206458 13.1269825094 
H 5.1737765470 5.9029192948 11.9476051746 
H 0.7401760935 7.8958008145 10.6201640455 
H 4.2585592031 0.6011876890 14.1265454151 
H 4.2054139319 3.4979621595 11.8523003521 
H 0.8409843594 5.3141566876 13.3146816797 
H 2.6202793579 7.8008664160 12.8544562262 
H 2.3039742409 0.9197629765 12.1156718689 
H 2.1937254528 3.3186186981 14.6859916027 
H 2.7819324239 5.4119486432 10.3858972774 
C 0.2431569459 17.2553058997 4.8529628398 
C 5.0493193498 9.6098588417 0.0842820604 
C 4.9071188394 12.8233406040 2.5724258593 
C 0.3620842409 13.9818683552 2.2853472017 
C 1.2839215921 17.5538677036 3.8145530323 
C 4.0339022938 9.3169592344 1.1767526157 
C 3.9201344770 13.1048099827 3.6874499488 
C 1.3565564613 13.6511854923 1.1944747617 
O 1.1468541011 9.6608715285 2.9205080701 
O 4.1273602877 17.2170463846 2.0326227311 
O 3.9243784785 14.0738393611 4.4256098770 
O 1.3068614259 12.6508288208 0.4701845693 
O 2.2566922537 16.6748513753 3.7463262096 
O 3.1034393533 10.2724416752 1.2755976340 
O 3.0075630193 12.1337697308 3.8035831879 
O 2.2784943563 14.5847070773 1.0968045169 
H 5.3120928963 16.3718974003 4.7509903839 
H -0.0626545863 10.5361306984 0.3263171506 
H -0.0826786534 11.9983003551 2.9064266635 
H 5.3273861188 14.9042772179 2.0542131629 
H 0.7814254600 16.7443323481 0.7017842841 
H 4.5859770423 9.9644075986 4.2788319835 
H 4.3440107452 12.5970114946 1.6705437820 
H 1.0310013260 14.2524896003 3.1181610644 
H 2.9497292378 16.8571529376 3.0299366334 
H 2.3861872183 10.0121923041 1.9376618738 
H 2.3220615192 12.3957124691 4.5222535180 
H 2.9787493181 14.2988455273 0.3835847125 
C 0.1797985539 17.2271536701 9.9091614938 
C 5.0950296805 9.5191578613 5.1526994171 
C 4.9708106131 12.7796305632 7.6018957704 
C 0.1799361400 14.1200365349 7.3021168589 
C 1.2650405479 17.5440779245 8.9057355942 
C 4.0562071148 9.1958305621 6.1946017944 
C 3.8780860528 13.0139502491 8.6038928914 
C 1.2149750884 13.7795109752 6.2670990776 
O 1.1451395668 9.5398486917 7.9017805174 
O 4.0393845701 17.1392573290 7.0720835087 
O 4.0058135654 14.0915138812 9.3391317611 
O 1.2137368136 12.7165526351 5.6366902208 
O 2.2248516586 16.6248970430 8.8444568688 
O 3.1539175711 10.1833811442 6.3399667847 
O 2.9168355800 12.2512470801 8.7607939457 
O 2.0675219707 14.7367926186 6.0919943259 
H 5.2043841590 16.3494602849 9.6930984230 
H -0.2443528865 10.3345670842 5.3543741585 
H -0.0095463576 12.0002583109 7.8593934198 
H 5.3504053291 14.8621017912 7.1762785091 
H 0.8515626126 17.0038408710 5.7078116431 
H 4.3015336874 9.6154681206 9.1683662629 
H 4.4949479720 12.4543453083 6.6509113363 
H 0.7542310412 14.4394479224 8.1810273517 
H 2.8635633063 16.8265135749 8.0338631588 
H 2.4239969327 9.9046634871 6.9651367867 
H 1.8477917016 12.2814631010 9.8642343453 
H 2.7015927340 14.5766635831 5.3187076119 
C -0.0275330923 17.1016328266 14.8084432181 
C 4.8146927411 9.3136783355 10.0765931753 
C 4.7804073471 12.7546004793 12.4938219310 
C 0.2329279497 13.9009571538 12.2390230856 
C 1.0428496046 17.4263889043 13.7970796598 
C 3.8159288931 9.0827453840 11.1541568075 
C 3.7749017810 12.9616675369 13.5557219166 
C 1.2451964011 13.5995377928 11.1933159239 
O 1.0785267347 9.5400074449 12.9303931614 
O 3.8316930834 17.0401424303 12.0157632043 
O 3.8658303077 13.8975704194 14.3510224041 
O 1.1083299974 12.4363532818 10.6061408484 
O 1.9188602061 16.4483105950 13.6460524730 
O 2.9322822639 10.0438900214 11.2153296975 
O 2.8094231820 12.0539698017 13.5376769724 
O 2.1551166807 14.3924040650 10.9539690542 
H 5.1504504138 16.2803497362 14.5043250531 
H -0.1314264616 10.3068381964 10.4150020261 
H -0.2474591569 11.8928882471 12.8427084913 
H 5.1142017723 14.7000147998 11.7299016544 
H 0.7055573179 16.9689680903 10.8455935536 
H 4.1640640217 9.8921749041 14.2007889831 
H 4.2527329615 12.4893239244 11.5877117276 
H 0.7541728317 14.2666186329 13.1092021539 
H 2.6176652223 16.6990347756 12.8825555381 
H 2.2538929060 9.8800038273 11.9849650884 
H 2.1664675327 12.2153688626 14.2705874622 
H 3.1878960423 14.2441285998 10.0217704123 
C 5.9130265803 8.3089294928 4.7455874842 
C 10.7190672733 0.5526145094 0.1647117105 
C 10.8043177282 3.6889210616 2.8963405451 
C 5.9272085305 5.0012277214 2.3523357496 
C 6.9241255499 8.6384481658 3.6910377706 
C 9.7005069045 0.2828187807 1.2131176762 
C 9.6781756246 4.0397708695 3.8394878643 
C 6.9901668706 4.7223460194 1.3153600125 
O 6.9808004333 0.6868297350 3.1844087642 
O 9.5674188264 8.3207830632 1.7565192097 
O 9.6998718918 5.0730264905 4.5389702273 
O 6.8995717256 3.8020856163 0.5077984881 
O 7.8046764922 7.6698950469 3.4572366784 
O 8.8324445452 1.3111001357 1.3093697260 
O 8.7116862970 3.1618711051 3.8641210652 
O 7.9603075212 5.6119247256 1.2514777350 
H 10.7333550591 7.4691251987 4.3526998356 
H 5.5496934811 1.4836436695 0.2903383894 
H 5.6888141799 2.9615087234 3.0639468552 
H 10.9240176219 5.7081291494 2.1380824651 
H 6.4676043372 8.0837116556 0.6594501042 
H 9.9157232917 0.6913171581 4.2521244077 
H 10.3258356596 3.2035491053 1.9948500591 
H 6.4696152108 5.4351795244 3.2147623712 
H 8.4794833202 7.9505706598 2.7028627594 
H 8.1527692866 1.1538868667 2.0299662613 
H 8.0017420998 3.3225981110 4.6189553685 
H 8.5924626628 5.3971316802 0.4314011687 
C 5.7777159577 8.1630882430 9.8330658054 
C 10.5755544034 0.5234727182 5.0899072448 
C 10.4894043473 3.7982014553 7.6635978377 
C 5.9397500313 4.8278322122 7.4574832992 
C 6.7466924183 8.4596391733 8.7370338872 
C 9.5639262565 0.1785285285 6.2008460860 
C 9.5499559771 4.0060834458 8.8192151140 
C 6.9875739021 4.5472465595 6.3876456549 
O 6.8323132972 0.6210688783 8.2320400385 
O 9.4498885594 8.2120371385 6.7828881422 
O 9.5838762388 4.9330220658 9.6325076280 
O 6.9512194251 3.5344383473 5.6539413992 
O 7.6541255649 7.4812962754 8.6029932901 
O 8.6389773430 1.1509181824 6.2537638109 
O 8.5908751311 3.0992271024 8.8219668357 
O 7.8989229603 5.4982574525 6.3087453271 
H 10.8758624922 7.3851976870 9.3559595977 
H 5.6734680396 1.4329643643 5.5698022166 
H 5.3544799939 2.8181493148 7.8481748621 
H 10.7483836929 5.7487699622 6.7597101787 
H 6.4704618944 7.8133549991 5.5258805049 
H 9.9001654805 0.7776577180 9.2651527817 
H 9.9594333324 3.3619265641 6.8037377258 
H 6.4839559142 4.9802564270 8.3848664280 
H 8.3165496452 7.6912208901 7.8597109261 
H 7.9584024831 0.9133123058 6.9859334526 
H 7.9524756979 3.1869593985 9.6169498169 
H 8.6079146385 5.3210889095 5.5865771354 
C 5.6402886261 8.3672448256 14.7345171564 
C 10.5284576283 0.5328656144 10.1422111542 
C 10.6156660389 3.6955834032 12.8021735140 
C 5.7031019656 5.0015187689 12.3081865521 
C 6.6641936852 8.6864974600 13.6789672979 
C 9.5116964620 0.2850572005 11.2171289001 
C 9.5403249512 4.0196727175 13.8100974202 
C 6.7636790080 4.6313592832 11.3052369121 
O 6.7552650898 0.7550036400 13.1678349931 
O 9.5548773256 8.1009099162 11.7835602274 
O 9.5088389049 5.0691582048 14.4685526711 
O 6.7651607043 3.6004532091 10.6395319328 
O 7.5989323778 7.7545104890 13.5922880645 
O 8.5563198567 1.1781126012 11.2555471684 
O 8.5811911874 3.1356927066 13.8449172832 
O 7.6986293715 5.5729772801 11.2018885953 
H 10.7003343987 7.4496514759 14.4410354541 
H 5.6796064957 1.3746278644 10.7375355593 
H 5.3721015963 2.9611118404 12.9909310387 
H 10.8178646657 5.6786010590 12.0822807845 
H 6.2839798318 7.9407808807 10.7725670932 
H 9.8294144823 0.8223044025 14.2665127974 
H 10.1208853111 3.3252122466 11.9355399333 
H 6.2400581201 5.3130983331 13.2076291222 
H 8.2537892235 7.9403575389 12.8436610103 
H 7.9331078106 1.0810403267 12.0656646189 
H 7.8716174142 3.3472260202 14.5800503175 
H 8.4428642545 5.2579104378 10.5786236315 
C 5.9320240435 17.2416531267 5.0681474763 
C 10.5867729611 9.6084829809 -0.0047731788 
C 10.5648650230 12.9013413305 2.6150405031 
C 5.8330678979 13.9846729946 2.3432444845 
C 6.9048105803 17.5433899941 3.9377507876 
C 9.5322814570 9.2783292952 0.9730775843 
C 9.5667838137 13.2633514865 3.6806129788 
C 6.8853897753 13.7023040146 1.2928646877 
O 6.9315869491 9.7122017217 3.0588879207 
O 9.5645612692 17.1008390608 1.9141664039 
O 9.6603952690 14.2979988437 4.3532819306 
O 6.8435318549 12.6941155198 0.5562182064 
O 7.8095978407 16.5746252044 3.7688956192 
O 8.5900813652 10.2210056466 1.0317315906 
O 8.6401944507 12.3216805719 3.7721712264 
O 7.8294419875 14.6486846067 1.2266169879 
H 10.9367707936 16.3455443733 4.5062564898 
H 5.6122951497 10.5450737939 0.3794095040 
H 5.4295173279 11.8974391714 2.8771631616 
H 11.0802836635 14.8858618497 1.9408845632 
H 6.4491889689 16.9344657337 0.7522572101 
H 9.8489411228 9.8520632686 4.0409350594 
H 9.9771078525 12.5894971776 1.6850802811 
H 6.3968004213 14.2945591916 3.2518788634 
H 8.4227555191 16.8048702254 3.0143894059 
H 8.0166648982 10.0146265195 1.8609787986 
H 7.9916877320 12.4892180890 4.5326677263 
H 8.4402712860 14.4413000428 0.4689145439 
C 5.7572367982 17.2131304730 10.0315072737 
C 10.3356254387 9.4989432903 4.9652965862 
C 10.5317385272 12.8911282096 7.6178240056 
C 5.9242451379 13.9410687893 7.4262089238 
C 6.7775963697 17.4620554509 8.9656384588 
C 9.3578646358 9.1958305621 6.0431512658 
C 9.5367794636 13.0841720700 8.7022669420 
C 6.8966083330 13.7428389918 6.3191701189 
O 6.6755709961 9.4554978382 8.0010541693 
O 9.4884655808 17.0716813943 6.9770961925 
O 9.5496384708 14.0630441452 9.4384583308 
O 6.8818972054 12.7831231331 5.5559906904 
O 7.7006402451 16.4914914586 8.8777950355 
O 8.4493731347 10.1412586352 6.2062436939 
O 8.7014731761 12.0555044157 8.8323387098 
O 7.8058935999 14.6986918567 6.2521762791 
H 10.8514145033 16.2979713386 9.6127163989 
H 5.7038957315 10.3537762184 5.5401153729 
H 5.5015383514 11.9206171349 7.9530577929 
H 10.8114087033 15.0637712408 7.0358877849 
H 6.4877659904 16.9207071252 5.9613933808 
H 9.9846221695 9.7601451804 9.1238624563 
H 10.0256863240 12.5818241075 6.6881654146 
H 6.5096210108 14.1623177971 8.2994043023 
H 8.3875123143 16.6772855907 8.1600719327 
H 7.8666960658 9.8858776948 6.9935536050 
H 7.9726373511 12.2101829256 9.5405366221 
H 8.5933622641 14.5233225164 5.6303400938 
C 5.6587039944 17.1923867248 14.8410405367 
C 10.4690310232 9.4250701464 10.0231991909 
C 10.3966395755 12.8070948624 12.5341452374 
C 5.7073353836 13.8961416409 12.2307150028 
C 6.7223502649 17.5683142425 13.8418480551 
C 9.4645467692 9.0993615496 11.0699117894 
C 9.3956478913 13.0762873290 13.6495450428 
C 6.7787605596 13.6152543571 11.2511020795 
O 6.6578964759 9.6789693905 12.9453159599 
O 9.4912173025 17.2070449346 12.0586265615 
O 9.5154007028 13.9668926391 14.4865976153 
O 6.7537833935 12.5844699938 10.5725910108 
O 7.6929671750 16.6898270915 13.7851731717 
O 8.5665858953 10.0524626928 11.1723075871 
O 8.4233905318 12.1436653454 13.6496508783 
O 7.7127054864 14.5526918537 11.1902466959 
H 10.4722060867 16.3981975096 14.3456777139 
H 5.4006242501 10.2102104307 10.3757899919 
H 5.3347946003 11.7993297094 12.6383402377 
H 10.8866047904 14.7913507930 11.8415051362 
H 6.2788997302 16.8787433694 10.9482539399 
H 9.8147562725 9.8520632686 14.0533602015 
H 9.8516928445 12.4467780736 11.6479320985 
H 6.1490396333 14.3349883335 13.1692637716 
H 8.3979900238 16.9343598982 13.0813674306 
H 7.8913557256 9.8940799422 11.9291898063 
H 7.8440472796 12.3713173979 14.4625729682 
H 8.4303756714 14.3017560022 10.4851180116 

